NAME : portcgen-3162-31624
COMMENT : portcgen N=3162, seed=31624
TYPE : TSP
DIMENSION : 3162
EDGE_WEIGHT_TYPE : EUC_2D
NODE_COORD_SECTION
1 572741 915028
2 970470 88268
3 181336 386902
4 335287 790563
5 314139 833255
6 298790 623346
7 869096 810547
8 866006 835359
9 635110 629673
10 871353 825366
11 202795 587154
12 325981 840533
13 683156 610633
14 865372 681134
15 461984 20514
16 301776 985757
17 882298 815423
18 622596 228181
19 596073 215081
20 553084 741093
21 871882 842299
22 363930 488214
23 286103 615610
24 414788 786499
25 564432 921738
26 419872 358531
27 840596 985676
28 649947 -1056
29 396499 775693
30 262360 929083
31 890285 15889
32 418628 380977
33 491115 578934
34 381512 197428
35 600340 -11054
36 350333 496525
37 194794 558996
38 870746 26683
39 298735 855597
40 419686 157075
41 311338 903611
42 317671 972520
43 283992 649728
44 382393 178753
45 840366 984831
46 223404 365574
47 935688 79166
48 833381 961354
49 310161 981489
50 360729 11191
51 379095 -5779
52 440612 197251
53 604211 254464
54 586169 226376
55 432069 10706
56 436609 163663
57 313401 646968
58 942623 828282
59 863993 819326
60 40285 550247
61 314060 818289
62 516322 596910
63 191773 535028
64 959656 55163
65 915408 816763
66 880369 828300
67 497556 582459
68 929693 856337
69 881097 852853
70 637147 243320
71 506094 556253
72 888748 820199
73 363603 232896
74 424558 355655
75 396052 753731
76 661819 277491
77 340541 802195
78 855193 948586
79 412273 350550
80 378669 473715
81 477987 17369
82 526432 765944
83 901089 818502
84 866364 851637
85 376680 346141
86 315851 783580
87 430619 505255
88 191993 557475
89 338897 782040
90 839210 983025
91 245390 344840
92 824477 958883
93 170421 515553
94 323614 861478
95 308693 938381
96 368389 793243
97 872132 811566
98 308383 669764
99 381537 230062
100 335615 1012509
101 623288 599860
102 692502 278417
103 882589 831468
104 323420 983848
105 571117 910421
106 273897 889618
107 853732 679778
108 842323 833879
109 595204 930849
110 875290 834348
111 613686 222634
112 619987 -23511
113 169563 411332
114 619590 266418
115 946026 55724
116 477908 -74
117 575213 932574
118 312415 865685
119 953749 60644
120 10202 550676
121 856778 644304
122 379925 -10738
123 827518 668215
124 320515 639109
125 359680 218313
126 848810 832242
127 158259 366183
128 853226 854225
129 426409 342511
130 426019 183739
131 877033 843529
132 636341 188359
133 868774 871226
134 824496 669197
135 871665 842811
136 339735 1002562
137 613775 3190
138 669639 303896
139 894144 816788
140 644634 304
141 322795 1001654
142 920521 829337
143 182166 416178
144 328971 623053
145 511692 728442
146 518943 538596
147 224276 369172
148 667095 287926
149 865923 29339
150 371624 768282
151 396528 14535
152 821586 647792
153 441146 212742
154 844825 633646
155 639188 -2128
156 331961 828875
157 185261 585947
158 335504 944420
159 851877 986738
160 934814 109814
161 520862 750857
162 955269 38881
163 518383 553538
164 864048 855115
165 165250 381032
166 589108 -22014
167 330705 969453
168 173838 407017
169 41548 548108
170 618305 645811
171 472889 30610
172 854666 47200
173 383124 229195
174 187377 596302
175 574493 933138
176 606966 195180
177 366675 813568
178 940341 78503
179 831158 636411
180 566017 982858
181 591060 235697
182 248392 371431
183 183332 518271
184 384741 756967
185 380380 208698
186 814975 624937
187 569249 949144
188 309605 997166
189 603754 938603
190 830542 966569
191 419555 200812
192 588157 214989
193 904886 804528
194 951358 77256
195 870560 802520
196 227393 575285
197 24966 519908
198 479894 546673
199 882141 789754
200 939846 96148
201 190577 562155
202 582281 220258
203 23201 541654
204 630520 205338
205 640807 224036
206 390736 255161
207 809072 977550
208 406578 377459
209 335968 996125
210 279421 918472
211 653198 -14904
212 442758 349575
213 839712 841849
214 918548 4813
215 305990 963413
216 925857 61174
217 597287 187066
218 884667 43959
219 955683 51961
220 155082 389521
221 361315 965142
222 664229 624574
223 675097 252432
224 247096 333194
225 957246 93447
226 630291 238134
227 351054 795893
228 596214 219467
229 641189 24734
230 863114 980495
231 919833 792077
232 215937 603172
233 194901 599073
234 823891 823946
235 5586 540920
236 187252 387191
237 493991 554999
238 371505 -1029
239 542056 560242
240 515368 754188
241 534604 748302
242 621506 -18301
243 18103 543869
244 886138 39561
245 342944 815180
246 248340 320938
247 217037 365183
248 387894 764483
249 933786 84001
250 373137 522376
251 372630 -35186
252 796647 683752
253 654652 279799
254 191024 546832
255 892722 881971
256 225287 357296
257 892800 850365
258 363685 452539
259 344593 996932
260 341219 1009305
261 270490 918207
262 576947 189294
263 396924 766742
264 582843 909134
265 633113 669761
266 176248 522291
267 165814 391633
268 387740 461257
269 509789 530821
270 852770 833571
271 5451 541333
272 288994 636723
273 306262 645988
274 916968 845920
275 936778 47983
276 505799 550428
277 847232 674831
278 21485 549473
279 35322 518254
280 539128 754435
281 383502 45810
282 235055 347939
283 419066 771416
284 174646 389125
285 703381 287622
286 848489 874834
287 8153 541078
288 354889 42085
289 285340 631422
290 835087 977929
291 143553 368672
292 848833 842871
293 415260 769385
294 872680 9871
295 333152 981285
296 521696 548883
297 893533 41836
298 457329 207018
299 299617 640679
300 653308 292444
301 54511 532117
302 404143 186976
303 193819 540900
304 611117 206726
305 303941 612187
306 577316 924838
307 369041 505692
308 865575 869733
309 527358 545670
310 657644 -8831
311 443360 179260
312 233960 367643
313 800025 644343
314 415695 383126
315 616604 13332
316 522291 736346
317 325951 1031710
318 185424 581490
319 909963 819752
320 212753 558812
321 276532 948292
322 463163 5422
323 636295 33920
324 420272 361004
325 396068 6251
326 339244 638034
327 443059 178289
328 285977 638255
329 388123 211583
330 211172 534876
331 324351 861597
332 376788 462619
333 369601 485202
334 628263 203574
335 622360 666146
336 266647 353844
337 367800 504486
338 303410 916683
339 499982 757639
340 305607 611029
341 896696 832387
342 429199 341417
343 631243 -1902
344 543461 537389
345 428971 733322
346 531714 598658
347 644685 274966
348 309106 889579
349 652424 -17192
350 324074 500593
351 404842 489961
352 415029 759816
353 682451 261482
354 666437 288506
355 864408 818645
356 339568 976106
357 425437 759378
358 234661 349154
359 942191 109773
360 860967 31764
361 842698 649687
362 277840 635372
363 512202 565266
364 147451 412082
365 191977 396669
366 622075 194233
367 856106 821973
368 409374 320739
369 320349 630292
370 519656 573659
371 882290 27067
372 304370 614083
373 577767 947244
374 378191 240722
375 31151 537691
376 902354 826263
377 295898 889908
378 813562 972772
379 441008 211539
380 376938 14367
381 941358 107298
382 453229 -8408
383 652200 5068
384 864176 813850
385 621445 4290
386 516843 544826
387 629821 -1425
388 230145 336566
389 429676 802862
390 511919 537022
391 887548 811826
392 376300 237725
393 327682 842763
394 634876 665750
395 644716 636211
396 609783 -22576
397 891908 -7976
398 348211 35700
399 23288 560163
400 639480 671051
401 462136 -12772
402 677858 660672
403 966711 77619
404 817262 671883
405 592489 214939
406 579092 210213
407 844175 957748
408 517115 754454
409 333335 795405
410 517914 728342
411 273691 899088
412 25469 527626
413 415852 319465
414 165790 398155
415 366166 37742
416 905609 23224
417 923391 797706
418 529043 532499
419 528687 727240
420 377603 -10009
421 639632 4431
422 673714 292522
423 332200 983569
424 664389 277143
425 563558 758237
426 195143 559152
427 957821 32402
428 886384 793283
429 407930 227309
430 550254 558687
431 298483 651489
432 196320 555776
433 282511 913194
434 630220 15287
435 380268 226882
436 871977 859933
437 396184 384200
438 126633 385302
439 181292 391241
440 891367 842253
441 37848 529800
442 246461 390057
443 639911 628866
444 630334 23664
445 346596 818417
446 293905 624745
447 416034 164957
448 512799 548114
449 599438 926784
450 371700 1210
451 864366 996851
452 361046 490511
453 882905 31669
454 951530 67335
455 270384 934580
456 415331 162809
457 641575 -28640
458 303519 985302
459 669835 278816
460 870799 798735
461 876163 53312
462 629662 615336
463 276981 631890
464 401654 25492
465 370566 213283
466 619511 246419
467 472836 27184
468 619737 29570
469 199832 575471
470 842061 979393
471 633470 -7225
472 539639 757572
473 828193 640668
474 675282 276876
475 894813 852405
476 876595 861018
477 265873 634640
478 375776 193804
479 522027 550325
480 183530 380624
481 896956 836167
482 975890 47647
483 814596 646898
484 942841 94313
485 388677 235457
486 537570 552156
487 645820 636896
488 191192 555383
489 324393 877913
490 355019 502301
491 445991 227629
492 262521 908703
493 820210 971106
494 654824 14043
495 384134 -15962
496 5933 589745
497 221703 369649
498 432988 762789
499 360770 814978
500 356121 792653
501 305323 987351
502 802832 973512
503 640603 304174
504 191236 574641
505 441049 195024
506 189692 413908
507 386852 9991
508 220666 552601
509 923412 875886
510 288616 933235
511 523745 738798
512 517692 585973
513 415148 11938
514 398786 345099
515 588816 230161
516 802397 650847
517 864673 838684
518 595368 234893
519 643844 -2737
520 615902 220310
521 358830 780955
522 646551 207480
523 404676 752592
524 314209 630849
525 511964 755742
526 373662 506666
527 503706 738199
528 181269 528915
529 395543 185750
530 870838 820533
531 488271 32396
532 206586 616284
533 507310 760125
534 578037 903697
535 814504 657042
536 618354 684542
537 375393 218847
538 373993 -4392
539 982452 107920
540 874807 820937
541 915355 36973
542 402801 774986
543 45846 496786
544 930773 77115
545 401185 342391
546 405290 349647
547 589204 212442
548 444757 192595
549 638520 205542
550 417650 347981
551 352675 212437
552 847176 661063
553 857729 802519
554 940390 88045
555 697145 279908
556 486954 45980
557 171723 382132
558 364125 210408
559 402858 230744
560 429600 756499
561 838510 648088
562 361935 213637
563 390346 476172
564 198592 409437
565 343779 444058
566 830629 668312
567 362134 795138
568 646908 646897
569 415551 768968
570 317412 1022629
571 624877 -16615
572 295806 907425
573 961080 58487
574 564952 917399
575 659082 299491
576 241553 357724
577 604866 180664
578 336139 875971
579 305998 923323
580 870239 815907
581 325375 809020
582 491936 549839
583 436982 358195
584 833889 825654
585 184852 579826
586 903602 324
587 190280 602582
588 295487 908917
589 866516 824411
590 290729 931003
591 196076 555078
592 646949 271116
593 514577 555008
594 344185 791086
595 881466 831758
596 227241 373243
597 820166 617924
598 216569 567522
599 274954 607079
600 938106 70836
601 647076 640787
602 278272 616450
603 21278 562150
604 388552 10544
605 406894 354621
606 299002 817790
607 424027 4673
608 278098 627720
609 881585 852530
610 859384 997029
611 266652 339985
612 293741 616897
613 883773 830275
614 324654 857278
615 510377 765938
616 293717 892086
617 513552 586983
618 285698 922953
619 377336 793756
620 635413 658466
621 859683 970358
622 618894 196163
623 636225 684459
624 384582 187453
625 351888 798876
626 377436 4269
627 295411 601297
628 528044 743865
629 296163 910127
630 501221 742979
631 35245 534869
632 288292 653285
633 383264 14927
634 414671 769208
635 362866 241972
636 345291 977073
637 844778 984375
638 893028 31760
639 280820 639704
640 361586 6479
641 414385 321953
642 525329 544974
643 906431 828522
644 641398 -22863
645 535220 569183
646 204820 536681
647 543174 735933
648 335534 973023
649 568103 920028
650 378422 757692
651 473868 58902
652 396851 783596
653 239795 346026
654 411738 -12646
655 343329 795046
656 942800 99670
657 527460 548390
658 654530 660242
659 820953 972222
660 851908 672084
661 437073 185126
662 430605 65538
663 842123 974084
664 531606 729556
665 380188 -16699
666 346801 486785
667 894998 805375
668 187299 407366
669 846109 818923
670 312075 837754
671 470176 739149
672 401283 -7656
673 270137 354432
674 163064 440697
675 594201 213813
676 277208 641559
677 386729 763917
678 171234 589791
679 605007 931382
680 370470 5275
681 545717 746248
682 962735 61324
683 219387 362710
684 615428 38019
685 12836 565422
686 441903 56615
687 288037 848062
688 846239 817072
689 680597 291937
690 519954 570214
691 265951 341485
692 284119 881634
693 200959 545612
694 188754 584784
695 517430 748304
696 880305 839411
697 586844 215612
698 532040 762805
699 516289 733102
700 427463 372139
701 512769 759048
702 560729 944091
703 159169 570687
704 899396 20847
705 593677 918266
706 286003 646152
707 822671 1007783
708 286894 639305
709 551555 924565
710 291229 994554
711 418940 336674
712 891497 23389
713 893472 -3868
714 241796 367877
715 203527 509080
716 306266 619522
717 545623 553445
718 349654 793011
719 879640 805274
720 257756 639257
721 887306 822365
722 463914 4183
723 616246 202198
724 839541 968948
725 856158 43855
726 184238 567010
727 185474 392882
728 634850 668687
729 383728 265437
730 645726 301804
731 165569 557975
732 332573 640424
733 636127 289608
734 834551 669586
735 843376 816866
736 408367 195772
737 511195 761376
738 20020 535951
739 858413 979458
740 861415 980346
741 820824 994063
742 414091 212437
743 844280 675913
744 881355 795573
745 436077 196939
746 330367 969935
747 512673 581530
748 535849 738485
749 605131 -8389
750 419673 165847
751 271436 636993
752 364573 203693
753 470287 17548
754 433374 381830
755 864851 841284
756 440476 39877
757 438497 35483
758 369409 766872
759 602111 253765
760 402966 780783
761 433904 341989
762 884912 790111
763 464059 17544
764 393162 487101
765 344052 1018606
766 662974 672407
767 181255 582957
768 654978 -7454
769 933767 832373
770 449701 360434
771 16308 531202
772 650623 639666
773 281403 660216
774 518955 555603
775 839714 603219
776 394587 -11961
777 635753 654795
778 613267 188093
779 861473 792188
780 151790 410294
781 419901 191352
782 261860 929865
783 166546 556814
784 369371 212423
785 382351 758239
786 177299 580665
787 338729 461103
788 855834 982779
789 225076 364471
790 893485 839239
791 186575 389485
792 506181 565030
793 324916 985118
794 579256 891114
795 298793 836595
796 966855 102811
797 257589 340292
798 894025 41421
799 409061 799424
800 335550 808462
801 652891 279860
802 212751 554756
803 557963 952083
804 166913 397921
805 531488 558121
806 848863 840432
807 493831 565415
808 348402 981338
809 314546 851415
810 440247 211920
811 276900 636936
812 823378 989023
813 634913 -132
814 258046 350704
815 290379 848274
816 239407 599766
817 196822 579129
818 590386 203339
819 447779 764181
820 391201 11946
821 179883 402455
822 888518 800940
823 417989 178066
824 387758 989920
825 646800 12755
826 -20381 543947
827 380358 475483
828 975732 96298
829 401630 776797
830 445584 228081
831 899174 12058
832 410747 775803
833 670721 290121
834 524985 586209
835 889866 819434
836 855808 968551
837 563903 916250
838 477153 535823
839 332245 793673
840 632611 676156
841 361280 212749
842 853253 633351
843 895641 828857
844 399096 755878
845 843575 831293
846 865636 673832
847 965146 73817
848 311171 871281
849 456700 227640
850 522560 764314
851 369015 746120
852 648991 655049
853 844502 997558
854 446393 213729
855 875438 794217
856 886635 864231
857 350760 841715
858 537778 546748
859 429256 196684
860 274624 920570
861 402661 320511
862 872017 812247
863 313173 815027
864 837770 648381
865 357122 808154
866 291121 889001
867 949925 863010
868 400098 484220
869 901614 839581
870 547249 738958
871 794915 654046
872 260164 655831
873 668610 276309
874 15906 533874
875 157458 543819
876 390057 -2459
877 537390 563850
878 595458 221514
879 341474 815939
880 405190 766987
881 163444 415043
882 545360 711521
883 639513 298049
884 180348 371215
885 294555 915440
886 577691 911592
887 598434 17288
888 386077 473134
889 538124 565079
890 601544 266355
891 837001 1031043
892 628120 7028
893 319996 788112
894 877190 47105
895 601458 223291
896 520650 747265
897 447109 170835
898 490597 530753
899 839025 970351
900 663190 305133
901 372823 507195
902 854157 859223
903 539235 765276
904 599913 207005
905 375836 458158
906 914581 830981
907 378594 27319
908 654919 649005
909 833287 978677
910 468277 56477
911 412546 223402
912 613638 911850
913 360280 241519
914 606911 176301
915 624670 954800
916 178915 400733
917 352131 484149
918 337997 821080
919 264146 913418
920 372871 488718
921 371222 -22140
922 460832 548187
923 600767 228944
924 204788 556271
925 254979 356169
926 197922 538111
927 371953 478272
928 516646 758984
929 365030 476137
930 383088 805028
931 880438 827314
932 211702 530887
933 470914 4511
934 344069 -15328
935 202050 579000
936 610141 -4352
937 526232 536066
938 621552 638767
939 418064 225237
940 519755 725468
941 178016 532440
942 208839 573008
943 358131 805864
944 859404 819617
945 218565 568331
946 905241 12990
947 173617 528544
948 253537 362411
949 317082 618595
950 379440 250284
951 378062 -13827
952 300934 862239
953 358727 -18629
954 302696 613090
955 426668 18523
956 325590 854605
957 623769 25369
958 308854 839672
959 439456 218313
960 3545 536909
961 172982 359661
962 353977 812273
963 666448 272948
964 244097 616880
965 447701 349396
966 181639 565674
967 250227 362212
968 393574 393653
969 163707 403948
970 14653 503459
971 335452 1004403
972 369612 221394
973 898734 769666
974 509398 550840
975 441675 355102
976 639189 -23041
977 871909 992832
978 201014 596502
979 694117 255176
980 609906 226457
981 872322 835949
982 319437 813151
983 586243 228921
984 352548 847492
985 14776 537869
986 577576 913023
987 310495 875003
988 386404 206464
989 517860 592762
990 397971 19014
991 296271 1003241
992 294678 916239
993 424956 -15416
994 -11697 554331
995 414206 348462
996 531213 580111
997 445994 348867
998 618126 612980
999 173039 370088
1000 632874 652655
1001 895595 30787
1002 340283 826100
1003 458581 2574
1004 628715 14931
1005 167362 411359
1006 857480 675906
1007 219436 376193
1008 950586 87963
1009 575355 929646
1010 394649 498049
1011 193703 376690
1012 958691 85112
1013 866548 797909
1014 419670 181488
1015 397128 779303
1016 375761 469484
1017 281320 835673
1018 375197 10247
1019 199907 422078
1020 287228 614668
1021 319167 783212
1022 586478 906640
1023 369565 215469
1024 177558 558622
1025 626961 230454
1026 283486 648491
1027 844547 643620
1028 852089 807532
1029 918510 1773
1030 236738 331279
1031 450852 378526
1032 374359 -15718
1033 325918 666526
1034 539929 766971
1035 232777 342120
1036 196178 568030
1037 537724 580492
1038 231155 530975
1039 343105 807167
1040 259572 340363
1041 290234 885668
1042 434373 169896
1043 213454 368290
1044 837090 827476
1045 314514 920130
1046 372182 769430
1047 303463 628310
1048 828602 650287
1049 347570 490431
1050 600185 222822
1051 206862 517480
1052 865768 834414
1053 345652 999135
1054 350424 477843
1055 189562 431745
1056 207493 618430
1057 9443 510639
1058 518803 560876
1059 856462 821036
1060 868304 35104
1061 817526 681300
1062 534597 573536
1063 383973 249481
1064 234546 345909
1065 638697 -1755
1066 853563 1027233
1067 463225 8370
1068 240152 580259
1069 166633 374743
1070 558347 949270
1071 458406 178974
1072 845292 990505
1073 353860 238622
1074 881778 825766
1075 646058 288388
1076 799336 647845
1077 674219 276530
1078 870906 827037
1079 583261 904040
1080 878773 808395
1081 507561 519453
1082 599466 950766
1083 343007 903631
1084 34404 524507
1085 386270 33793
1086 870011 859330
1087 382774 511341
1088 369405 199494
1089 606808 936995
1090 442162 9784
1091 599016 207002
1092 325931 619341
1093 263268 891299
1094 394289 806870
1095 384105 -7683
1096 301730 846009
1097 278808 911983
1098 821769 653126
1099 511448 740225
1100 843860 988576
1101 855422 827218
1102 912478 800406
1103 885827 8915
1104 628535 -41737
1105 301300 842916
1106 398902 784746
1107 286664 628719
1108 375773 11799
1109 952763 98027
1110 829908 643410
1111 881155 834887
1112 226128 351209
1113 490131 525070
1114 341973 997007
1115 566300 912877
1116 325353 1002083
1117 385039 198589
1118 969244 85205
1119 398338 722326
1120 606670 5118
1121 889354 818352
1122 203617 536129
1123 582231 256221
1124 880211 38228
1125 276892 356984
1126 680539 282623
1127 621005 229649
1128 783028 622957
1129 515846 511294
1130 191116 532757
1131 832710 976472
1132 635998 654170
1133 258685 342139
1134 914436 838107
1135 424957 344940
1136 872284 780620
1137 481305 -5506
1138 204862 558134
1139 615416 190858
1140 420202 371996
1141 344401 988529
1142 394943 495258
1143 447597 323935
1144 290673 837753
1145 356235 815467
1146 321456 979664
1147 25533 541309
1148 512815 754824
1149 17989 529270
1150 24437 534603
1151 209922 519165
1152 831006 823838
1153 237224 367385
1154 639227 621416
1155 375006 243785
1156 386359 11297
1157 339172 790584
1158 235091 384147
1159 383766 794171
1160 314069 864179
1161 377191 435134
1162 12113 552441
1163 675054 275766
1164 204711 563607
1165 650649 298456
1166 494518 588595
1167 366388 506323
1168 372261 215569
1169 357880 235328
1170 328525 809086
1171 616084 -4255
1172 425810 358820
1173 223168 563403
1174 435258 189430
1175 328277 839926
1176 659733 12893
1177 400253 363991
1178 366513 28596
1179 354667 228100
1180 465360 31884
1181 349885 783402
1182 340516 498737
1183 410900 346557
1184 388332 750134
1185 923948 71743
1186 844948 833454
1187 357585 498800
1188 291622 634440
1189 593245 13545
1190 229720 360821
1191 196355 579116
1192 500645 739175
1193 195289 529268
1194 449300 5767
1195 399106 -17684
1196 456150 59466
1197 295655 635838
1198 214927 352324
1199 599393 203994
1200 640331 -9220
1201 195415 592275
1202 298711 639615
1203 273702 892841
1204 656751 641518
1205 876825 17963
1206 378569 21093
1207 870193 829848
1208 170210 401824
1209 842723 952597
1210 810386 666857
1211 591283 198661
1212 366914 -11473
1213 587986 229337
1214 187629 568318
1215 683824 287454
1216 229169 329582
1217 27246 537159
1218 53182 550697
1219 679784 256683
1220 456435 200681
1221 820807 668703
1222 35229 572772
1223 347648 830684
1224 396941 -23340
1225 432408 780456
1226 845903 12183
1227 647609 652904
1228 405915 385985
1229 653925 280226
1230 373256 209744
1231 154756 407737
1232 191407 563376
1233 387275 484737
1234 365855 20032
1235 318759 823442
1236 815993 658730
1237 613812 226473
1238 326330 966652
1239 906084 802858
1240 628182 643915
1241 481976 8515
1242 589241 922300
1243 891012 9570
1244 43003 534185
1245 680378 286709
1246 431345 201018
1247 558127 747900
1248 500637 518670
1249 854793 691508
1250 327347 966633
1251 475910 727493
1252 994615 104608
1253 477780 22618
1254 551054 765582
1255 881219 813701
1256 867530 841056
1257 501762 732437
1258 926121 816602
1259 155289 379146
1260 214642 555955
1261 347404 245896
1262 249554 371847
1263 268467 920620
1264 373952 495736
1265 635854 283016
1266 847259 999780
1267 813494 659432
1268 235102 351508
1269 528269 539655
1270 9133 536826
1271 876289 834276
1272 398542 765014
1273 535233 741890
1274 447165 343701
1275 368656 9115
1276 979665 89717
1277 418800 347215
1278 634112 616967
1279 444182 191123
1280 31686 506340
1281 887190 37527
1282 257163 867330
1283 400764 5752
1284 166970 375578
1285 834996 649224
1286 651577 634192
1287 608590 653534
1288 568302 918466
1289 809983 669057
1290 133831 390517
1291 640820 659106
1292 837537 993448
1293 347761 796338
1294 555675 972528
1295 809493 649831
1296 379468 213417
1297 616901 -21822
1298 605896 223088
1299 344139 787219
1300 -1286 548761
1301 18702 535095
1302 603989 -2329
1303 605437 -17032
1304 639187 2596
1305 897792 40415
1306 179096 603680
1307 430086 744221
1308 137585 402181
1309 849715 830986
1310 829527 658539
1311 275160 897771
1312 981610 110484
1313 282000 679462
1314 359400 247659
1315 642154 268917
1316 677421 266871
1317 669647 266925
1318 206219 576666
1319 645638 -11462
1320 385585 735143
1321 518623 548956
1322 161499 569060
1323 151298 385544
1324 902748 10772
1325 265842 888454
1326 903474 846020
1327 238946 906479
1328 360037 227749
1329 858645 798045
1330 183358 395998
1331 287793 637252
1332 272774 915056
1333 297171 623841
1334 334787 987606
1335 668851 638358
1336 370685 726750
1337 431442 184377
1338 618119 652303
1339 609701 9222
1340 829365 661730
1341 844713 852884
1342 955322 129817
1343 372184 233787
1344 263949 911880
1345 891017 840038
1346 256848 630102
1347 542386 543202
1348 242065 345317
1349 625540 643005
1350 661753 303411
1351 826826 985678
1352 199706 532981
1353 287605 877756
1354 638993 287812
1355 165422 373294
1356 329734 654995
1357 391314 368820
1358 375634 225816
1359 605611 221017
1360 648716 292765
1361 335958 830285
1362 428438 202054
1363 255304 925852
1364 34781 530370
1365 393646 764450
1366 671614 256646
1367 823713 988992
1368 240659 363936
1369 815856 670664
1370 360304 987084
1371 279752 906290
1372 413992 360295
1373 581202 927733
1374 842277 990677
1375 378785 1901
1376 380759 13324
1377 447450 21610
1378 189071 546227
1379 617926 673105
1380 332395 612876
1381 252930 347564
1382 878396 -7852
1383 380257 202392
1384 322786 836606
1385 380174 786359
1386 377602 228862
1387 830595 974483
1388 392591 224388
1389 376499 8599
1390 331130 828012
1391 400999 351404
1392 813018 955400
1393 387775 224484
1394 853082 968175
1395 668203 256171
1396 245257 342946
1397 834020 676160
1398 878381 -6049
1399 370521 229665
1400 483600 12495
1401 891387 809016
1402 379139 480775
1403 891302 -11641
1404 302167 815680
1405 328198 632724
1406 285606 914114
1407 177540 531203
1408 286417 636081
1409 874821 827781
1410 222552 350402
1411 480561 36664
1412 973082 105900
1413 526645 562582
1414 546022 756031
1415 281864 634948
1416 500689 571968
1417 641657 666176
1418 500036 546156
1419 651779 260807
1420 288614 619205
1421 900376 827977
1422 7803 538182
1423 397989 332353
1424 345989 498842
1425 648906 280496
1426 267989 660424
1427 424290 163017
1428 169035 397533
1429 601643 234999
1430 415864 338854
1431 892945 815081
1432 843725 848450
1433 519025 738737
1434 362995 269461
1435 837174 826941
1436 630395 296239
1437 374161 -2541
1438 872275 6122
1439 588360 209238
1440 847587 662130
1441 222798 595870
1442 608134 218884
1443 435509 200608
1444 594614 181205
1445 396983 787168
1446 353666 495254
1447 559500 963797
1448 288712 636548
1449 439770 167967
1450 597327 194734
1451 927713 57061
1452 543537 758429
1453 453454 174677
1454 570550 939818
1455 847911 975371
1456 822720 639899
1457 604051 235350
1458 300697 866974
1459 305673 943898
1460 276236 926018
1461 954511 84091
1462 359071 477852
1463 338238 973672
1464 407286 801576
1465 654423 636279
1466 920084 58856
1467 689661 288277
1468 399197 741783
1469 209286 504088
1470 564458 182900
1471 672092 653497
1472 487691 740922
1473 416036 394039
1474 366548 46410
1475 409556 350074
1476 322357 878050
1477 841873 656180
1478 357311 2756
1479 422028 785808
1480 330419 629236
1481 165432 360897
1482 897011 778728
1483 286757 346396
1484 889732 51564
1485 192783 565492
1486 239788 365292
1487 881390 8522
1488 422931 769427
1489 240474 895273
1490 191586 617012
1491 305909 824064
1492 299370 867079
1493 334373 798321
1494 371561 466615
1495 946925 91109
1496 378063 -24334
1497 565244 964125
1498 856776 1029678
1499 285940 901098
1500 631454 4268
1501 873787 798211
1502 277646 880058
1503 843944 37279
1504 837916 1009312
1505 288765 659293
1506 420308 774498
1507 648070 -14037
1508 193093 563547
1509 647271 1469
1510 975517 106000
1511 417590 157381
1512 164375 383216
1513 801640 988866
1514 195354 556506
1515 184550 399124
1516 420607 170354
1517 409007 200559
1518 835774 674338
1519 276728 637857
1520 326197 1013096
1521 171196 359278
1522 -34717 532369
1523 824357 660757
1524 595352 5803
1525 464140 333790
1526 869151 14521
1527 325652 847917
1528 530792 729029
1529 876995 823515
1530 638307 659774
1531 518507 567303
1532 671716 295708
1533 213776 568888
1534 248064 360654
1535 391445 747844
1536 429650 332148
1537 289206 870890
1538 333067 978683
1539 480135 9574
1540 458887 -6773
1541 382198 452363
1542 833941 1000775
1543 830761 789113
1544 400006 344271
1545 618274 206124
1546 610743 217775
1547 297014 928442
1548 888366 850271
1549 370956 -1893
1550 942836 96743
1551 203208 373774
1552 333851 870359
1553 951159 98541
1554 883931 816751
1555 382662 -31283
1556 639286 636984
1557 311870 894033
1558 802080 637774
1559 470851 48127
1560 535365 713700
1561 621605 214969
1562 392699 -28869
1563 683702 265097
1564 167262 544141
1565 905423 825736
1566 923867 820342
1567 558432 725751
1568 418479 758297
1569 846375 861982
1570 432735 214561
1571 453864 182161
1572 630943 -5957
1573 456992 17897
1574 876373 -8458
1575 448713 1498
1576 852120 1002068
1577 378600 467272
1578 334610 984552
1579 397454 -31530
1580 292078 850340
1581 197858 589982
1582 387396 231253
1583 959120 83293
1584 -144 540979
1585 834103 692791
1586 455470 204841
1587 632136 653555
1588 460662 -4520
1589 836300 663176
1590 168534 567197
1591 481101 574662
1592 530504 734419
1593 434497 200973
1594 888413 846629
1595 527858 775175
1596 367453 234323
1597 889284 834994
1598 334441 1008834
1599 298527 868084
1600 851152 30786
1601 384150 224574
1602 897261 818106
1603 195267 574216
1604 362133 253926
1605 321946 987174
1606 969690 70321
1607 523914 544211
1608 485920 -899
1609 443029 205277
1610 175713 407456
1611 298869 634095
1612 381216 766757
1613 417666 -11662
1614 962853 89894
1615 304346 877327
1616 613060 207626
1617 872490 19826
1618 307952 637292
1619 869431 823351
1620 523172 768214
1621 258671 912155
1622 275389 893855
1623 631082 6134
1624 496041 731845
1625 400116 770931
1626 842467 814876
1627 651449 289151
1628 927964 815877
1629 847276 986870
1630 584765 221362
1631 160375 400643
1632 551349 944088
1633 898983 830146
1634 213028 530804
1635 948462 67617
1636 297236 618494
1637 367748 780804
1638 475107 -11633
1639 246308 348269
1640 324867 826444
1641 15751 511566
1642 265347 906296
1643 621308 652272
1644 942603 52547
1645 577485 915889
1646 301045 628726
1647 518461 569732
1648 603155 226085
1649 320256 859963
1650 881801 845215
1651 838324 962453
1652 311317 1005671
1653 294777 825448
1654 812925 1014139
1655 871053 821097
1656 462695 13445
1657 128927 400774
1658 543568 926529
1659 155673 408337
1660 843810 975721
1661 685938 273984
1662 361482 41448
1663 545645 720428
1664 316595 837164
1665 293342 651305
1666 373052 12678
1667 325637 881790
1668 507579 535737
1669 299356 666420
1670 501080 729827
1671 882627 813763
1672 895656 818988
1673 470460 -23095
1674 829579 670067
1675 301237 996992
1676 805902 686455
1677 429660 185133
1678 863562 838846
1679 512831 565829
1680 428503 350792
1681 386017 762699
1682 387727 249155
1683 168522 398672
1684 361961 217183
1685 864973 -11018
1686 232267 365711
1687 842245 655470
1688 563651 932790
1689 435650 209678
1690 365814 220607
1691 577953 928157
1692 619684 190162
1693 516477 558490
1694 268489 625696
1695 844059 820023
1696 868480 820357
1697 380913 781619
1698 628214 7588
1699 892597 811158
1700 318809 638946
1701 276790 906001
1702 434903 337369
1703 405981 759849
1704 839504 656199
1705 383729 767526
1706 596499 201055
1707 887455 -4113
1708 387374 495386
1709 416879 178506
1710 613922 178224
1711 956781 76524
1712 189758 557979
1713 864868 826495
1714 289929 644383
1715 832265 645127
1716 924991 86419
1717 250829 350085
1718 423302 751623
1719 875976 796238
1720 396499 775174
1721 292012 892427
1722 388135 369584
1723 386625 251517
1724 405554 350095
1725 354274 498091
1726 839465 843042
1727 925101 110615
1728 607225 -20124
1729 298951 866538
1730 432425 159235
1731 867346 833903
1732 247427 364360
1733 339043 997870
1734 222637 611625
1735 848795 849552
1736 649859 291095
1737 608085 225530
1738 307635 922174
1739 835477 964992
1740 188774 592155
1741 369113 493282
1742 232105 341847
1743 347503 801739
1744 520430 787592
1745 340542 1009292
1746 163662 388036
1747 631515 653204
1748 262935 925280
1749 416017 195390
1750 495305 762383
1751 197525 591032
1752 392678 790646
1753 380333 479
1754 628286 -9983
1755 844414 844281
1756 9948 522953
1757 823647 675869
1758 298862 852571
1759 396193 24294
1760 587673 950671
1761 512085 556821
1762 178673 399142
1763 297019 877106
1764 677404 293817
1765 503275 545651
1766 331794 789095
1767 611527 -2263
1768 654459 677989
1769 844240 965440
1770 886128 813461
1771 359274 788669
1772 408410 769688
1773 834996 641020
1774 312013 880263
1775 662565 278729
1776 892834 816381
1777 408891 753456
1778 905602 830546
1779 332780 800474
1780 470910 18525
1781 664990 658214
1782 585782 942075
1783 865967 794257
1784 440309 188066
1785 166000 386108
1786 305019 600913
1787 551923 937222
1788 854855 958636
1789 839224 646023
1790 427931 375607
1791 885029 826147
1792 27020 538035
1793 346908 26099
1794 622246 287439
1795 603471 928903
1796 908226 837426
1797 336651 880816
1798 952424 88627
1799 213342 576616
1800 161694 404344
1801 839540 975361
1802 185013 367276
1803 586115 226235
1804 167022 410311
1805 617840 208749
1806 491376 19583
1807 609510 208432
1808 845745 850851
1809 638665 9942
1810 492285 21795
1811 320673 1015444
1812 435179 153889
1813 344892 858288
1814 889589 801534
1815 172178 375939
1816 439897 198850
1817 668122 252366
1818 829284 638438
1819 324463 622915
1820 370414 463375
1821 233452 313042
1822 396033 336480
1823 6440 552017
1824 871236 825812
1825 368343 224025
1826 522116 732808
1827 449500 218266
1828 303392 910445
1829 831972 964580
1830 868130 10229
1831 218278 498722
1832 187701 580547
1833 334042 881230
1834 870374 850623
1835 346480 1006947
1836 355719 470532
1837 371274 462593
1838 248922 351607
1839 333106 975605
1840 394444 199498
1841 214071 575711
1842 507386 576940
1843 891357 802336
1844 879197 24234
1845 601575 926982
1846 842339 819963
1847 845009 648957
1848 421319 207516
1849 642778 285957
1850 375839 248314
1851 338287 821927
1852 397014 33020
1853 454477 22512
1854 466343 34589
1855 3550 515402
1856 881500 39765
1857 519539 756111
1858 594150 224643
1859 554295 935092
1860 363899 480722
1861 857468 835521
1862 563492 936884
1863 677496 283597
1864 853666 1005338
1865 324523 993724
1866 174801 546000
1867 314356 639315
1868 635006 635713
1869 879001 840598
1870 838290 992911
1871 507842 752503
1872 528333 735647
1873 344353 995966
1874 343316 799482
1875 575200 927688
1876 470290 37876
1877 586440 207030
1878 821527 986593
1879 424671 233498
1880 32712 550327
1881 799318 983630
1882 884247 544
1883 8355 525153
1884 349932 477374
1885 656679 284069
1886 520735 757187
1887 209179 586069
1888 634345 -26028
1889 607311 227102
1890 325038 864830
1891 233816 372547
1892 175225 544385
1893 249245 367646
1894 671707 274339
1895 929038 108038
1896 477888 580313
1897 191581 576199
1898 824046 653058
1899 372103 806298
1900 355159 -1944
1901 384604 1084
1902 965111 97774
1903 166095 534657
1904 209075 543161
1905 823971 975026
1906 633134 629919
1907 454973 -10732
1908 9691 561508
1909 530813 742539
1910 431239 204564
1911 154276 418692
1912 937179 74910
1913 3416 523570
1914 293218 925913
1915 30622 547405
1916 813337 965249
1917 397350 27252
1918 265049 644936
1919 850005 994868
1920 415677 765646
1921 937745 105096
1922 501154 560019
1923 360210 473436
1924 807253 963235
1925 401780 204017
1926 885886 20787
1927 634927 -4662
1928 614121 200036
1929 660060 660537
1930 838546 833676
1931 895795 -6500
1932 850234 831284
1933 301886 856691
1934 673524 291346
1935 398877 344853
1936 497338 717235
1937 415251 773711
1938 976974 92902
1939 312192 840417
1940 284260 906413
1941 173662 540617
1942 359694 31039
1943 629722 204946
1944 855972 963508
1945 347017 882888
1946 506166 561579
1947 327539 858256
1948 836270 625527
1949 158453 401039
1950 629200 12245
1951 297290 900268
1952 317639 863361
1953 307504 660105
1954 328863 599680
1955 305640 876925
1956 657397 293568
1957 334455 992587
1958 829793 970335
1959 673004 621347
1960 462082 -12047
1961 822562 665095
1962 870641 834171
1963 589962 222878
1964 468518 2032
1965 446507 216325
1966 887867 47298
1967 369945 225318
1968 298692 861276
1969 857857 620121
1970 638839 262259
1971 227651 557943
1972 171536 536268
1973 429161 782269
1974 871386 840501
1975 979818 89635
1976 250341 367318
1977 478384 511190
1978 868136 23043
1979 638203 644097
1980 365748 793249
1981 533966 556032
1982 181942 586770
1983 364988 980598
1984 229607 530403
1985 239138 382807
1986 524596 766792
1987 875061 827418
1988 606558 1454
1989 256 517727
1990 652156 296773
1991 272623 656652
1992 240140 367905
1993 392541 -21563
1994 394449 511023
1995 242469 361605
1996 153456 383590
1997 426474 214884
1998 357505 28386
1999 838204 958193
2000 379623 519166
2001 416504 760352
2002 320585 905556
2003 461740 13958
2004 204020 584518
2005 389156 478531
2006 900193 813009
2007 885793 777982
2008 385981 767196
2009 528856 617768
2010 583641 921370
2011 693140 277318
2012 1151 517604
2013 681722 288302
2014 399686 340982
2015 896482 4803
2016 619230 929609
2017 173935 385085
2018 400119 481324
2019 486455 590037
2020 297980 663350
2021 209233 547636
2022 295728 633856
2023 480619 10475
2024 325880 809558
2025 514331 741039
2026 426211 394230
2027 218096 411459
2028 395793 -18029
2029 866353 843999
2030 180740 587365
2031 588196 3110
2032 649436 305007
2033 236313 368340
2034 577059 915231
2035 302467 889274
2036 866897 -7086
2037 881119 860892
2038 661072 637556
2039 964909 88588
2040 675489 260357
2041 477532 731688
2042 201330 561023
2043 481264 538472
2044 849266 805971
2045 526229 747384
2046 335842 968766
2047 641651 653072
2048 660623 275173
2049 368090 188224
2050 851583 852949
2051 246203 350813
2052 340005 827189
2053 895539 828574
2054 244357 355767
2055 664331 303342
2056 523666 563362
2057 594190 222643
2058 319650 1020091
2059 592234 925850
2060 885607 16299
2061 820735 1028602
2062 535747 759764
2063 844119 645011
2064 916067 849021
2065 626513 636009
2066 507421 558731
2067 407547 744456
2068 162818 385854
2069 314034 808912
2070 631634 622200
2071 37961 519306
2072 824038 969943
2073 183894 578217
2074 276480 627442
2075 649249 -24819
2076 440467 195984
2077 882385 829007
2078 586707 929442
2079 641830 666439
2080 882196 865041
2081 475429 23921
2082 325574 1020903
2083 859421 -11
2084 959943 108259
2085 387343 743664
2086 219494 542962
2087 313141 1005194
2088 374312 221968
2089 225950 363737
2090 373308 799003
2091 237744 338283
2092 349009 1002665
2093 877583 800096
2094 631851 228742
2095 913152 838480
2096 867175 808775
2097 599060 198824
2098 402585 198672
2099 923737 9450
2100 635083 626474
2101 627261 668674
2102 384340 498032
2103 618051 193210
2104 827773 985480
2105 874982 823976
2106 250084 359354
2107 956728 64452
2108 477197 26569
2109 347734 5016
2110 896721 -28981
2111 372390 214254
2112 571178 931838
2113 641209 200303
2114 344037 977262
2115 234965 345786
2116 617899 17351
2117 853693 854044
2118 907873 42180
2119 445353 187258
2120 275148 909794
2121 827943 683808
2122 452655 29758
2123 871926 811548
2124 290907 358579
2125 825085 952824
2126 174167 387700
2127 578717 253582
2128 800836 661246
2129 437719 210149
2130 379830 517485
2131 670346 289723
2132 580298 908951
2133 888778 41898
2134 227569 360985
2135 975086 70705
2136 150456 386212
2137 627675 6310
2138 393931 820701
2139 885471 17292
2140 382893 24655
2141 527167 551261
2142 299721 633643
2143 842143 980478
2144 259565 621962
2145 596546 934195
2146 888549 18329
2147 576662 918881
2148 407958 342716
2149 676791 296002
2150 956142 63539
2151 828335 654219
2152 490124 526279
2153 525150 529995
2154 889376 12647
2155 406556 194176
2156 401540 756672
2157 207602 608999
2158 873158 841430
2159 955641 99205
2160 367617 224853
2161 367837 478043
2162 206892 589310
2163 405884 -13491
2164 296255 644419
2165 180683 608375
2166 395194 6947
2167 179059 381096
2168 369312 231643
2169 856548 844025
2170 312743 914013
2171 523657 551591
2172 522649 515340
2173 828350 656472
2174 398726 462691
2175 394556 -1726
2176 309472 641878
2177 408922 189778
2178 451958 198202
2179 355212 829584
2180 433586 338688
2181 392982 -2648
2182 590132 194809
2183 424991 208345
2184 579373 925734
2185 671868 243551
2186 567760 920821
2187 1605 550598
2188 244455 342680
2189 303532 862690
2190 880215 824211
2191 617289 -732
2192 809657 648194
2193 826269 646796
2194 401165 373680
2195 378364 219633
2196 396363 476416
2197 655639 634201
2198 808800 974506
2199 512714 560940
2200 288920 858115
2201 956594 68155
2202 175674 538780
2203 319641 865530
2204 272616 920838
2205 537072 738294
2206 429126 778849
2207 349731 478889
2208 359636 11309
2209 668206 272014
2210 634923 659920
2211 162383 543809
2212 600454 223492
2213 306939 850205
2214 402204 793338
2215 414501 755656
2216 298141 853929
2217 170605 548714
2218 309413 864938
2219 331154 1012805
2220 661558 658585
2221 438362 197259
2222 229195 330443
2223 443433 198560
2224 807525 631830
2225 215086 551023
2226 595654 196223
2227 37029 511571
2228 607224 906981
2229 464516 191112
2230 889053 799772
2231 19559 531307
2232 227761 379625
2233 646498 658075
2234 656945 634842
2235 643108 669944
2236 843200 976685
2237 171028 584094
2238 597435 936271
2239 876334 826042
2240 159242 386079
2241 186158 376684
2242 868014 798859
2243 212681 604801
2244 507983 739620
2245 250860 357066
2246 241817 364517
2247 863646 997126
2248 597537 197593
2249 594166 213664
2250 282523 890203
2251 661179 286961
2252 357265 1002887
2253 336852 490095
2254 347581 795425
2255 886860 813975
2256 393162 753571
2257 400110 344742
2258 22913 560908
2259 960203 111363
2260 660615 247727
2261 889159 849206
2262 539128 758951
2263 196332 513521
2264 173527 394182
2265 594818 949252
2266 465473 170568
2267 838513 809441
2268 510676 709689
2269 352998 244534
2270 220187 518194
2271 419166 367762
2272 296394 834775
2273 298521 858644
2274 404226 788117
2275 859490 16310
2276 327879 797264
2277 273688 646829
2278 188596 382575
2279 855203 817921
2280 282471 913732
2281 593396 911694
2282 637939 10575
2283 968921 91328
2284 592430 673382
2285 179413 563456
2286 958738 68143
2287 589368 175196
2288 532747 738472
2289 403219 231478
2290 335979 771250
2291 188033 545839
2292 668657 272015
2293 242304 347031
2294 604308 238916
2295 457199 205696
2296 201262 577258
2297 360637 6345
2298 831053 1015084
2299 812290 675935
2300 465748 36334
2301 646203 645172
2302 219229 595645
2303 582440 215802
2304 216674 524394
2305 596423 223957
2306 855239 856725
2307 374838 495095
2308 615525 921131
2309 323556 1005628
2310 946369 56541
2311 438561 181416
2312 647646 643681
2313 451629 224131
2314 843383 632248
2315 806600 669564
2316 371090 -16046
2317 203542 545154
2318 919600 834468
2319 374661 214157
2320 195201 558534
2321 176769 588998
2322 373593 -360
2323 533342 752731
2324 832690 986353
2325 965444 95180
2326 875124 768396
2327 836510 672384
2328 381426 -2581
2329 594924 237853
2330 361750 814718
2331 287656 669174
2332 501825 703286
2333 843606 963605
2334 408271 337447
2335 381466 10940
2336 301268 638997
2337 211233 588375
2338 829626 999525
2339 354385 620025
2340 360374 823143
2341 494503 571094
2342 209060 589606
2343 592173 931632
2344 611736 215222
2345 961374 72105
2346 371468 206909
2347 168525 522917
2348 341966 -4336
2349 984493 96748
2350 195705 579691
2351 667870 302107
2352 876117 836648
2353 360969 808744
2354 366438 375684
2355 640908 669954
2356 397302 346474
2357 830726 674282
2358 616928 869
2359 593263 957732
2360 334556 197291
2361 579768 919586
2362 179168 523998
2363 376818 -1727
2364 339758 253406
2365 613335 938195
2366 870403 789789
2367 34115 538709
2368 307048 873281
2369 360800 498622
2370 302518 640274
2371 876465 830311
2372 467806 18639
2373 347060 998873
2374 428917 350320
2375 322023 837256
2376 360386 777349
2377 521124 551864
2378 185700 553661
2379 316118 1008069
2380 198593 371364
2381 167403 368355
2382 198325 558409
2383 987786 79118
2384 625986 6813
2385 148418 359921
2386 447893 22298
2387 571978 222235
2388 907661 828638
2389 212071 529348
2390 885145 17904
2391 905569 869918
2392 223618 370507
2393 660058 321548
2394 904523 831427
2395 518005 748032
2396 370089 -4370
2397 909714 95518
2398 863896 856898
2399 447325 180138
2400 515372 544780
2401 842429 951610
2402 901740 838415
2403 448968 207113
2404 408919 364776
2405 812274 956277
2406 277442 602957
2407 499476 592779
2408 214168 527280
2409 630965 640058
2410 427816 185003
2411 443398 5095
2412 640515 9666
2413 607091 236745
2414 429807 29535
2415 808916 662092
2416 891829 49646
2417 374814 329653
2418 313065 909530
2419 955837 111249
2420 522141 583790
2421 536071 763949
2422 225346 381017
2423 527367 567180
2424 285148 639871
2425 281197 629337
2426 250730 367952
2427 214719 599168
2428 440436 331569
2429 822777 632845
2430 819260 681103
2431 460786 33682
2432 891951 852347
2433 426789 383407
2434 618844 643513
2435 512169 559300
2436 258545 351501
2437 382210 772240
2438 858242 980632
2439 508729 550499
2440 382751 458686
2441 623906 646116
2442 472299 96
2443 234389 604969
2444 318908 994643
2445 164502 529853
2446 188403 527998
2447 23727 548591
2448 879971 -1064
2449 838989 693593
2450 483341 519339
2451 443440 5791
2452 12003 553554
2453 387976 754380
2454 528840 574107
2455 352687 5004
2456 879210 802657
2457 980811 45179
2458 650402 -8943
2459 299693 644348
2460 893942 13471
2461 3515 551130
2462 189063 522030
2463 948728 96012
2464 605722 196878
2465 284828 642272
2466 429509 192630
2467 432565 26721
2468 826097 1005389
2469 282167 919342
2470 491974 32070
2471 423409 205023
2472 269133 924205
2473 289120 916933
2474 621426 13122
2475 864918 50899
2476 348215 13800
2477 849649 13046
2478 293559 935288
2479 941774 96067
2480 348126 1013835
2481 855120 807280
2482 672092 265772
2483 657566 654980
2484 513104 752079
2485 643801 663856
2486 791584 972137
2487 357163 217428
2488 402338 213720
2489 876851 796541
2490 623936 219636
2491 392687 202966
2492 635278 656523
2493 946388 843593
2494 195996 565646
2495 667291 -14424
2496 263022 408077
2497 329435 998787
2498 948752 83740
2499 326149 761910
2500 364212 790656
2501 191459 535989
2502 319496 819833
2503 348596 1025447
2504 440583 214282
2505 927022 72727
2506 505373 527757
2507 577679 173292
2508 144205 391858
2509 150608 381595
2510 593001 208283
2511 347782 217054
2512 528379 539434
2513 187485 532094
2514 649460 3814
2515 410112 396256
2516 856348 804001
2517 290180 625771
2518 192168 565976
2519 460775 24003
2520 901881 14147
2521 293128 886050
2522 289501 652190
2523 203485 545269
2524 188137 562432
2525 352423 990563
2526 398222 335298
2527 414668 8778
2528 901389 832837
2529 338689 801742
2530 345818 632065
2531 192499 538196
2532 208267 524671
2533 821868 984398
2534 875191 17786
2535 429131 348552
2536 841290 1003448
2537 308023 881705
2538 663446 8642
2539 295374 826608
2540 29661 535997
2541 459032 32981
2542 186604 583110
2543 891746 840609
2544 396050 783609
2545 897107 840991
2546 616983 227444
2547 405357 216977
2548 332513 782810
2549 13525 548799
2550 830014 656269
2551 185845 562901
2552 292793 923832
2553 423064 13720
2554 572346 912527
2555 660721 316491
2556 509656 752612
2557 202676 586469
2558 345437 206972
2559 871090 853987
2560 906433 804783
2561 606504 894796
2562 424408 184788
2563 339886 241981
2564 318367 771698
2565 210868 569201
2566 399910 764109
2567 840019 654946
2568 411490 332113
2569 895006 803896
2570 654226 283740
2571 465376 -4093
2572 887930 829552
2573 314060 786718
2574 870553 818744
2575 397473 363166
2576 326885 812862
2577 887803 18796
2578 286897 824103
2579 889906 806695
2580 891456 19290
2581 426829 349504
2582 430294 365140
2583 828251 636980
2584 455299 18173
2585 316791 898577
2586 332863 982411
2587 42440 535584
2588 885416 833933
2589 379586 480819
2590 144948 380106
2591 545351 754072
2592 640581 655779
2593 407503 211928
2594 599413 226766
2595 381167 12900
2596 -11635 540139
2597 253676 660077
2598 869952 22532
2599 358007 234114
2600 465606 1155
2601 956853 75126
2602 378475 492571
2603 434637 344251
2604 275362 896793
2605 835871 668822
2606 511485 523880
2607 351200 46311
2608 901898 857336
2609 230896 336795
2610 223462 363614
2611 863563 814308
2612 890738 790861
2613 34671 502594
2614 217999 368772
2615 904299 53404
2616 845639 966929
2617 839066 854067
2618 626723 242236
2619 192478 570336
2620 386433 -1737
2621 631970 12737
2622 438251 42642
2623 624209 -12367
2624 316228 979949
2625 959887 54040
2626 658388 241139
2627 513292 539909
2628 173227 568213
2629 432201 196424
2630 960349 71821
2631 398633 385016
2632 613975 -26952
2633 33304 530137
2634 395685 484461
2635 567577 923695
2636 967212 69236
2637 875658 816490
2638 618735 211298
2639 580149 928933
2640 529250 730356
2641 361362 6
2642 337027 999898
2643 176891 567231
2644 896718 809558
2645 374142 203101
2646 342705 805000
2647 265601 929167
2648 619056 238280
2649 382117 484313
2650 522711 527641
2651 397936 475637
2652 867817 822213
2653 209210 350978
2654 358258 978616
2655 274951 647297
2656 366647 -1463
2657 910808 857557
2658 468414 -4245
2659 623208 2295
2660 894154 821199
2661 191349 555693
2662 597605 922052
2663 302699 636585
2664 631395 653384
2665 827311 969945
2666 354979 213852
2667 288210 652131
2668 283611 917966
2669 568793 945727
2670 375167 785414
2671 379852 481781
2672 631674 252692
2673 178949 529216
2674 332748 648631
2675 621139 -1418
2676 273664 901397
2677 374390 209930
2678 209794 594247
2679 523181 533395
2680 186535 532721
2681 891316 21060
2682 405215 474860
2683 860335 988205
2684 304069 628723
2685 354555 465281
2686 928250 69213
2687 563918 932585
2688 286766 607628
2689 166249 521040
2690 936715 840198
2691 893627 803466
2692 881391 863791
2693 917930 852848
2694 487523 515530
2695 386827 -2387
2696 357309 497705
2697 974467 83351
2698 432651 352979
2699 180109 417985
2700 592630 929249
2701 839748 641482
2702 417504 746020
2703 265186 917763
2704 168941 383838
2705 839596 679849
2706 392631 448600
2707 893704 858686
2708 274385 885552
2709 273208 629526
2710 609014 14681
2711 803907 673502
2712 451525 16469
2713 970034 74204
2714 10760 534335
2715 529700 739456
2716 774578 988240
2717 556001 953698
2718 845352 834277
2719 524658 750657
2720 832256 994137
2721 511694 718303
2722 529153 564320
2723 457396 17243
2724 696631 242302
2725 352272 783106
2726 866117 783419
2727 531422 748959
2728 172972 556044
2729 399379 771353
2730 572229 944887
2731 172857 389422
2732 10791 556965
2733 941231 107753
2734 393652 215347
2735 826789 664545
2736 203979 574356
2737 852327 800817
2738 376390 -6205
2739 201940 558765
2740 900986 843246
2741 630493 657692
2742 455560 5143
2743 407486 769831
2744 403111 338416
2745 314995 987133
2746 600553 -2244
2747 657937 304496
2748 349100 220982
2749 309400 625070
2750 884207 795734
2751 387291 229131
2752 384953 -8245
2753 22856 559184
2754 268196 658488
2755 652841 297141
2756 369828 -14404
2757 508458 569018
2758 647847 291528
2759 326876 790484
2760 946434 74703
2761 552713 719942
2762 841206 845097
2763 863583 808536
2764 615228 940845
2765 814459 646846
2766 644222 638300
2767 377814 -19821
2768 338305 606577
2769 302027 859552
2770 450686 29153
2771 597220 9707
2772 175869 398145
2773 545481 734770
2774 416721 377319
2775 413075 758761
2776 399891 792764
2777 506322 538631
2778 852772 839475
2779 229263 569329
2780 968116 57665
2781 388835 513787
2782 369968 28586
2783 630842 282948
2784 -23624 536479
2785 516944 566458
2786 375960 -4730
2787 319063 858415
2788 410844 333990
2789 666420 260300
2790 575242 939261
2791 855541 642106
2792 589260 937502
2793 514805 547003
2794 376318 496919
2795 415717 775661
2796 877631 822263
2797 851245 815003
2798 323110 861329
2799 623879 641190
2800 299914 914778
2801 321533 908309
2802 427244 359535
2803 430422 176946
2804 183738 543212
2805 846559 970572
2806 348318 805724
2807 204551 525724
2808 856070 973661
2809 490418 571257
2810 355862 769359
2811 277401 636138
2812 300434 634376
2813 283258 638800
2814 896523 822936
2815 632750 675129
2816 654723 629382
2817 284961 910770
2818 499001 739396
2819 437828 208377
2820 419221 374784
2821 310865 880880
2822 390416 2982
2823 294480 910642
2824 445380 -13236
2825 274556 918181
2826 443646 -27257
2827 822731 983264
2828 457215 36112
2829 573960 898028
2830 836130 981411
2831 504128 778433
2832 538527 721852
2833 299673 844614
2834 878563 787522
2835 445415 -458
2836 286114 890892
2837 370198 819305
2838 805513 993925
2839 408771 362611
2840 651918 296796
2841 656997 -19407
2842 864614 631807
2843 792674 982280
2844 644356 684603
2845 890792 825878
2846 192916 562310
2847 299298 631516
2848 864437 -4168
2849 138326 388357
2850 206435 415496
2851 248592 380252
2852 672502 277629
2853 232294 354097
2854 397479 485651
2855 833568 961883
2856 880671 836384
2857 510434 719262
2858 159879 426905
2859 612617 202222
2860 547700 920199
2861 393123 341458
2862 370929 235749
2863 289203 913532
2864 375015 3561
2865 374549 218565
2866 509057 716971
2867 864578 790574
2868 246651 392634
2869 317451 861223
2870 634102 680179
2871 215952 389364
2872 381450 -7959
2873 379363 9819
2874 319434 999847
2875 181128 509442
2876 176294 536822
2877 812444 644249
2878 895824 833435
2879 515571 564034
2880 436659 340400
2881 831613 989459
2882 153721 421026
2883 17301 554950
2884 293715 895519
2885 187098 374234
2886 358845 8688
2887 879546 796812
2888 332808 828262
2889 869241 821210
2890 624781 -4693
2891 660702 283726
2892 427006 188965
2893 406813 373887
2894 522606 569147
2895 442971 27289
2896 818724 630112
2897 677984 249845
2898 604132 36848
2899 434416 210580
2900 875421 842359
2901 597921 209781
2902 317961 984325
2903 199497 560372
2904 865427 991472
2905 390280 346953
2906 421284 768666
2907 887341 812752
2908 30807 564129
2909 341960 831185
2910 940637 66349
2911 550490 959452
2912 293987 921733
2913 606457 219054
2914 24298 531617
2915 433585 353211
2916 917035 29618
2917 276339 898680
2918 568709 929837
2919 825915 974152
2920 414595 333824
2921 306923 634688
2922 595652 928199
2923 465186 -21886
2924 415516 196707
2925 322196 844089
2926 331003 864333
2927 565095 959304
2928 302680 866094
2929 501255 566582
2930 160147 578654
2931 851014 971528
2932 403887 12793
2933 149677 394109
2934 5927 542063
2935 191992 566411
2936 430221 755935
2937 392296 456079
2938 3956 514171
2939 185346 403515
2940 -1479 559262
2941 909879 19155
2942 306866 1004925
2943 439124 186046
2944 207226 532919
2945 279745 948878
2946 535464 750816
2947 366252 453406
2948 843145 814985
2949 523387 545198
2950 34518 544603
2951 231805 361959
2952 619998 23065
2953 600791 218402
2954 606831 215988
2955 848867 976043
2956 292515 634972
2957 886802 811566
2958 262187 370897
2959 289034 615749
2960 375459 484073
2961 843807 643840
2962 397455 754814
2963 287454 654339
2964 379920 248318
2965 879727 849385
2966 1171 512895
2967 530160 578143
2968 231686 356454
2969 854691 811140
2970 167752 390771
2971 849999 976916
2972 159093 378947
2973 883571 4784
2974 526235 551690
2975 886690 27898
2976 896449 805744
2977 338752 809606
2978 905931 42236
2979 245771 358386
2980 901025 859282
2981 873564 823326
2982 668042 282566
2983 864515 810035
2984 848928 844609
2985 863186 18920
2986 192673 524098
2987 883979 833877
2988 221136 592404
2989 346779 982319
2990 324214 1009006
2991 230296 521470
2992 539134 554474
2993 522264 546988
2994 970801 77315
2995 870869 827907
2996 498556 559232
2997 345853 1025514
2998 991263 101357
2999 879747 860938
3000 516500 752549
3001 191860 572035
3002 384220 468752
3003 897687 797631
3004 414933 793104
3005 301774 639977
3006 495882 535035
3007 458282 49516
3008 458824 25983
3009 913874 839179
3010 868599 796979
3011 371933 492778
3012 972992 104641
3013 869024 27755
3014 353914 999524
3015 801186 664105
3016 239019 311270
3017 940011 84521
3018 478036 12826
3019 407766 762414
3020 451871 15720
3021 351813 785913
3022 664390 269178
3023 367002 861838
3024 304094 629876
3025 193147 409885
3026 835738 20381
3027 855665 823216
3028 261643 388525
3029 575461 924516
3030 556074 963008
3031 625746 215784
3032 307555 874913
3033 338966 978487
3034 963164 62600
3035 585458 945979
3036 513527 561939
3037 502641 764068
3038 334694 1000365
3039 950726 53886
3040 466415 38420
3041 207510 569891
3042 294677 631188
3043 647926 622204
3044 417322 742810
3045 864488 803191
3046 821193 1012271
3047 173792 575473
3048 260621 912859
3049 474175 195161
3050 272899 936073
3051 429994 185166
3052 887649 846777
3053 594672 911496
3054 294220 602251
3055 430819 208762
3056 171082 405055
3057 418673 187574
3058 176490 400332
3059 894644 46983
3060 468115 28857
3061 508729 557286
3062 946511 76992
3063 884782 831251
3064 849751 981244
3065 196791 535515
3066 665847 306583
3067 206163 587150
3068 295035 609926
3069 285837 888239
3070 660265 645995
3071 843289 1004071
3072 522615 769247
3073 388885 497847
3074 584556 917522
3075 386683 210305
3076 856202 999064
3077 429010 798720
3078 446915 -2370
3079 210400 600993
3080 678929 303813
3081 194910 539679
3082 402496 360082
3083 873172 24813
3084 637372 12734
3085 430964 144851
3086 323339 997853
3087 844255 842929
3088 528118 749306
3089 881691 847783
3090 504120 595532
3091 424494 191372
3092 291736 910546
3093 432416 16004
3094 360790 -33153
3095 353058 199034
3096 334207 857736
3097 237295 337158
3098 602321 194528
3099 874263 808996
3100 935031 58454
3101 232744 360285
3102 464532 37786
3103 297575 623172
3104 -3369 555803
3105 361673 506033
3106 396513 493045
3107 271946 634921
3108 825822 681250
3109 228724 362802
3110 269106 917568
3111 320785 860327
3112 432944 185316
3113 613932 10119
3114 408840 25283
3115 869934 14960
3116 638637 303236
3117 199911 517227
3118 212395 525272
3119 146132 373340
3120 887300 824478
3121 354056 28867
3122 571964 974635
3123 151314 552202
3124 835995 992672
3125 183355 574098
3126 863295 8956
3127 360966 23029
3128 454705 191397
3129 456934 355170
3130 888121 827893
3131 589594 920092
3132 962907 71974
3133 902165 13362
3134 298535 836028
3135 408972 310483
3136 877614 860007
3137 869999 824122
3138 383876 777710
3139 401732 183988
3140 580875 922566
3141 842554 675966
3142 914829 828126
3143 939908 88261
3144 307459 876468
3145 202200 582399
3146 333772 793196
3147 496397 552504
3148 515138 725106
3149 624942 -15723
3150 363618 -11443
3151 838573 843198
3152 919783 833797
3153 840052 657979
3154 478458 12253
3155 373059 520699
3156 807185 653391
3157 152808 406940
3158 281524 897478
3159 337163 776773
3160 890185 840159
3161 499582 3674
3162 320582 991538
