NAME : portcgen-3162-31621
COMMENT : portcgen N=3162, seed=31621
TYPE : TSP
DIMENSION : 3162
EDGE_WEIGHT_TYPE : EUC_2D
NODE_COORD_SECTION
1 790664 250845
2 249645 251080
3 5336 131893
4 5769 124781
5 792474 261426
6 167130 34703
7 568895 802110
8 331327 422358
9 389059 285243
10 119506 494530
11 827048 696172
12 357246 808152
13 136983 951348
14 793634 697305
15 219621 25042
16 521457 541989
17 730214 885970
18 671593 292123
19 432109 297745
20 917923 670620
21 112674 507026
22 124044 928597
23 757414 665027
24 532260 568788
25 270583 882809
26 32780 855676
27 455936 719497
28 101504 494078
29 169612 990173
30 761193 693007
31 420058 298258
32 609383 769834
33 490606 940244
34 764707 267138
35 773098 704092
36 309882 427040
37 93718 539429
38 722336 883685
39 451539 709302
40 444991 748952
41 441773 283445
42 617566 832257
43 804986 702188
44 471674 723678
45 40558 93563
46 776864 925171
47 482144 995178
48 644267 290733
49 752941 248846
50 777852 297174
51 758903 927646
52 458171 716959
53 539241 554572
54 1018017 649805
55 908778 689384
56 1001286 632549
57 510305 539484
58 45401 128955
59 173680 27710
60 387672 303415
61 758463 253597
62 724028 253308
63 498118 917143
64 778622 260104
65 830045 694954
66 446821 712248
67 586605 808194
68 559850 779919
69 96324 637779
70 982532 659811
71 208917 8269
72 782391 704747
73 659138 936828
74 115063 535038
75 16030 100979
76 770384 307443
77 181704 18522
78 216770 612501
79 232382 618861
80 284382 229532
81 517087 945310
82 140711 963925
83 960799 654899
84 638489 286749
85 769433 921581
86 270402 425906
87 128763 972300
88 73940 825417
89 748658 972070
90 799176 234361
91 799652 677224
92 747160 697967
93 710147 865688
94 483452 747253
95 776187 920856
96 60096 101043
97 590264 782612
98 56303 79867
99 334555 805020
100 353063 814512
101 763469 920078
102 708477 871407
103 898838 63490
104 295403 449107
105 266448 267482
106 586626 770050
107 605880 799856
108 779987 683405
109 637193 945124
110 477791 725085
111 390450 822280
112 369161 800597
113 454631 729633
114 795239 926508
115 782357 315191
116 451973 687255
117 776674 284027
118 899247 676892
119 238279 871602
120 635332 803800
121 621830 970358
122 77291 661724
123 236455 652961
124 48343 824613
125 217689 644833
126 535263 515323
127 283340 409995
128 650981 301130
129 703779 848550
130 772295 664230
131 496665 693151
132 393245 813696
133 649449 279374
134 39768 799687
135 914304 678376
136 243292 263596
137 755922 675571
138 901510 672611
139 21855 842533
140 337746 807643
141 441893 301667
142 42082 97536
143 795871 670083
144 614225 781905
145 513445 937057
146 480788 705998
147 638924 319942
148 274681 853025
149 167960 9996
150 500508 973441
151 184502 19536
152 617754 977464
153 458525 724145
154 421075 319213
155 336452 794483
156 602887 806818
157 463382 1009501
158 637481 968238
159 618946 763175
160 630486 295232
161 772038 253027
162 979299 660063
163 1004544 674971
164 316690 405518
165 34366 70200
166 526113 544058
167 88610 652245
168 520601 535027
169 492595 986988
170 788074 717764
171 497619 1009482
172 367234 816045
173 611647 966254
174 13304 127054
175 496421 929312
176 792184 668789
177 603777 978469
178 68084 831197
179 715625 867853
180 607211 793088
181 228087 640446
182 24869 832001
183 607751 777505
184 755184 261546
185 500815 930528
186 744969 270727
187 475523 722338
188 203089 644442
189 716513 919479
190 631771 975276
191 304273 860869
192 752139 922763
193 622971 974758
194 643566 814484
195 97376 651549
196 657866 308729
197 721611 903397
198 65057 107885
199 380744 832777
200 48342 839821
201 599901 772897
202 523569 553137
203 810010 256116
204 452756 993231
205 522903 956889
206 604893 772404
207 34926 93534
208 994785 673021
209 742241 907543
210 900551 689324
211 609253 756745
212 643363 822947
213 145056 912533
214 379811 785656
215 468951 735550
216 611167 967822
217 413526 307160
218 85742 663003
219 801147 257152
220 759554 686520
221 173086 -10529
222 49183 835194
223 786893 692405
224 14328 108869
225 767478 912388
226 788228 940368
227 338524 777396
228 953835 683323
229 809237 702233
230 127275 674832
231 213816 154
232 683640 869801
233 13439 107714
234 978504 641887
235 645021 940801
236 26982 109331
237 109745 537490
238 477765 926169
239 751453 253815
240 769343 254622
241 29763 824589
242 254786 274324
243 898886 56530
244 761316 260692
245 -3787 91066
246 781248 683105
247 773414 277116
248 771240 238775
249 760740 285963
250 827971 673801
251 123815 937602
252 597753 779096
253 766340 941076
254 380300 794567
255 426615 298169
256 792345 281284
257 497495 911548
258 616483 967886
259 60680 857770
260 128755 538071
261 783096 269856
262 798884 931730
263 603939 792144
264 431136 285271
265 272302 876754
266 1007016 635237
267 113060 934836
268 246397 624809
269 757423 948896
270 639571 993272
271 257866 279851
272 785539 687279
273 920798 67134
274 461663 880988
275 611547 757975
276 210053 650718
277 607750 782492
278 348106 800559
279 769788 689350
280 98616 504536
281 801821 271569
282 74731 825657
283 905094 689427
284 328645 844600
285 51456 833479
286 261381 285625
287 56238 842728
288 903536 82761
289 43708 807744
290 742216 249714
291 467809 909138
292 41988 836274
293 356573 796071
294 160291 960607
295 425417 306867
296 811656 670219
297 905165 45632
298 926920 667809
299 461828 994638
300 811023 674004
301 993605 631169
302 593377 780216
303 446987 1035829
304 61386 820337
305 635866 780513
306 876660 55107
307 633101 995128
308 769160 654112
309 158539 3800
310 46397 823388
311 90650 521442
312 647571 292793
313 257130 243417
314 763918 663460
315 631427 801082
316 479838 719260
317 771105 902009
318 646802 989675
319 286884 899425
320 529996 928199
321 68699 532759
322 423213 270605
323 532224 900537
324 750825 899892
325 909747 694326
326 347390 784492
327 138228 908805
328 744339 863070
329 905608 689352
330 149582 906697
331 764223 676248
332 255216 887412
333 673950 308805
334 370993 838209
335 112044 921277
336 793342 653486
337 123512 953555
338 906684 87279
339 506184 922591
340 1001508 677683
341 498968 927571
342 42290 841922
343 273631 413918
344 536253 597619
345 790975 276368
346 642220 986347
347 768457 663201
348 506833 947860
349 467286 734506
350 175450 57881
351 773824 286972
352 242423 880278
353 783078 684879
354 747736 907231
355 377117 800769
356 149086 16741
357 589552 756076
358 475307 730120
359 279954 848474
360 783560 227160
361 475900 719533
362 165495 -8050
363 468035 716914
364 910885 44920
365 38721 821102
366 551240 558973
367 41179 838613
368 756361 265353
369 891729 58229
370 248404 656282
371 56792 833917
372 910893 676161
373 907915 73642
374 926292 667921
375 739420 884912
376 916526 57613
377 365272 327409
378 805062 259198
379 970542 635080
380 451748 705113
381 461072 1006495
382 760970 271383
383 361055 819633
384 467494 717750
385 759914 282456
386 160048 5018
387 797951 711341
388 621018 790151
389 261579 247179
390 48999 111634
391 1006480 684810
392 336375 795017
393 870659 667069
394 127977 955274
395 97994 524566
396 488406 568543
397 802575 666036
398 760141 233803
399 201782 624856
400 214164 644217
401 106288 532707
402 669581 311549
403 799752 695942
404 20318 100931
405 1005899 668793
406 466542 908838
407 403705 300747
408 752856 663536
409 476033 944814
410 628913 295162
411 745486 275379
412 95331 526110
413 482674 913437
414 175356 -30424
415 993099 671388
416 764054 243350
417 261924 277399
418 547263 582372
419 786918 685276
420 594211 956921
421 902048 32073
422 625033 970187
423 585303 777754
424 475698 982123
425 917106 35050
426 763646 262252
427 918605 96726
428 439767 315087
429 261071 253863
430 9442 111516
431 306192 409035
432 117827 670576
433 120310 929520
434 891919 657983
435 626725 779604
436 806745 264218
437 731070 264252
438 51684 94577
439 490125 546121
440 72563 508711
441 743131 671683
442 889939 58665
443 503950 913889
444 501056 534714
445 510425 889524
446 913036 61063
447 802491 281809
448 399293 241633
449 603058 751100
450 982271 649974
451 630460 984015
452 836238 670802
453 599338 278632
454 390528 784747
455 606092 772131
456 626298 298216
457 257321 262185
458 622995 965906
459 243318 636679
460 163899 21172
461 21621 91674
462 1007127 662203
463 781996 244065
464 773503 667823
465 115737 556104
466 314674 894637
467 783209 739696
468 984718 640948
469 487779 993891
470 173795 7440
471 765401 624251
472 277536 436498
473 451042 319770
474 22215 828959
475 248514 406714
476 774261 665910
477 789429 700312
478 222682 642098
479 981593 638795
480 239613 259358
481 772746 870459
482 96318 505721
483 234423 632833
484 488136 984480
485 621000 924977
486 899349 662677
487 815183 688713
488 254909 272252
489 357075 780498
490 716256 865405
491 614998 768252
492 243514 274239
493 136957 597798
494 767953 260313
495 408896 287402
496 789701 665628
497 955034 668095
498 493343 1015764
499 359489 826301
500 631874 957139
501 987871 639158
502 638951 293282
503 714705 896749
504 771300 680435
505 666329 263643
506 105046 535837
507 461493 718056
508 550153 546381
509 223113 68020
510 779202 688925
511 139425 977753
512 615291 803881
513 124891 656126
514 630026 794799
515 772923 672241
516 635014 783247
517 130006 525246
518 506801 922090
519 874194 55760
520 250467 248990
521 813595 675592
522 512600 914487
523 614434 986840
524 787721 685227
525 183659 28131
526 127154 514394
527 614946 969251
528 439375 303062
529 296415 449368
530 610637 780445
531 627669 996578
532 519377 912458
533 958742 658549
534 671509 302586
535 648530 771317
536 894975 674846
537 827147 686520
538 403984 809019
539 633097 939222
540 531907 562033
541 241008 644087
542 880151 682656
543 -5129 114358
544 621065 774877
545 717397 899074
546 754157 944700
547 53751 829821
548 489206 961253
549 919504 73961
550 310023 405710
551 116019 638028
552 517369 952583
553 241811 650791
554 746983 270242
555 892703 75759
556 923841 674645
557 765570 916019
558 46236 802662
559 44668 815583
560 444209 333731
561 248814 260721
562 662512 278560
563 256907 877983
564 740109 655920
565 240585 652757
566 190953 35241
567 536404 524374
568 69922 830261
569 261220 883532
570 238102 627760
571 613369 764815
572 640569 281899
573 22335 103569
574 305581 431143
575 517824 929745
576 602210 963465
577 633659 787541
578 711141 270803
579 460593 752894
580 812002 699087
581 999432 676281
582 917346 87919
583 475442 691613
584 636873 786095
585 651072 277559
586 389328 838211
587 162943 973226
588 497941 933742
589 119429 653307
590 520457 560265
591 139618 927679
592 72028 865327
593 250118 276721
594 594432 763632
595 34865 95689
596 783287 666058
597 797011 269073
598 602711 779530
599 447028 713750
600 930225 680046
601 485749 928851
602 768458 705661
603 779878 672370
604 481209 926641
605 501439 924793
606 277247 249757
607 42874 848408
608 900291 53343
609 353701 810453
610 636545 278551
611 530139 920484
612 123436 651820
613 101569 534240
614 822868 252373
615 760678 286731
616 639174 959546
617 641498 795784
618 808480 706700
619 235907 638226
620 492850 1007641
621 127393 507120
622 472213 994879
623 774048 285474
624 363347 821970
625 488163 1011386
626 794902 665226
627 760363 226899
628 463693 709976
629 616298 272014
630 131831 489023
631 377148 800477
632 209222 639746
633 38852 125841
634 638625 1013773
635 62989 129344
636 644025 964458
637 264420 904964
638 118674 507016
639 494223 933936
640 718068 882983
641 503550 544645
642 460929 739642
643 638059 940017
644 747365 681431
645 43178 834798
646 781345 697702
647 492043 988192
648 181037 22358
649 363937 815132
650 135116 527302
651 318508 399673
652 1009652 647668
653 651624 272665
654 258238 625792
655 41940 850379
656 216395 624352
657 348214 858119
658 435015 322877
659 616515 959299
660 224919 264684
661 771418 664881
662 457850 954285
663 527471 541092
664 236396 635846
665 149488 952712
666 685412 896523
667 117532 514290
668 214429 671453
669 277325 277485
670 727187 841863
671 779720 647922
672 28096 105740
673 478576 932633
674 260178 886407
675 28630 81004
676 454227 698748
677 390101 823003
678 459981 701375
679 828832 681001
680 45716 840223
681 814539 264413
682 273310 405259
683 766769 291356
684 507377 908775
685 177959 -7853
686 776195 664680
687 366371 776630
688 681451 864534
689 598613 779100
690 309778 906425
691 597626 808213
692 805112 684883
693 613485 789890
694 600339 272397
695 507440 952761
696 553379 551785
697 90792 672107
698 751641 638089
699 248575 285984
700 763079 238866
701 630274 975954
702 517683 567749
703 100511 940989
704 87625 512810
705 52455 851156
706 898721 649477
707 620143 938475
708 453818 994722
709 269177 260030
710 783760 290149
711 303783 884616
712 630982 973762
713 527738 554010
714 758472 660807
715 404429 276392
716 506101 945865
717 623350 804786
718 776650 720551
719 153499 542353
720 785868 691728
721 440158 293429
722 615687 792199
723 73210 823092
724 616004 948250
725 780394 685117
726 248005 235209
727 773418 265587
728 803174 664224
729 653308 274187
730 139921 930325
731 893006 693799
732 107299 649851
733 810850 301185
734 125086 653443
735 803757 266511
736 526343 530754
737 139772 618599
738 770747 263745
739 492525 728884
740 594069 784654
741 289612 874551
742 746082 936235
743 931929 43031
744 512104 921275
745 629114 966414
746 88668 518889
747 243841 619709
748 259371 892122
749 739476 936568
750 787567 679059
751 637005 774038
752 314655 433683
753 511277 549100
754 646461 976397
755 206020 632606
756 229843 237481
757 403574 272738
758 633217 975577
759 282796 249148
760 61167 822160
761 593663 772726
762 648896 309519
763 643828 976009
764 749874 248152
765 640804 983145
766 819538 690674
767 631959 970985
768 648 96999
769 745038 266305
770 633460 949430
771 615220 949672
772 991486 679827
773 773671 309891
774 238044 649744
775 648528 993923
776 281033 890982
777 516029 514070
778 772045 910123
779 772677 296286
780 807169 275338
781 182578 21887
782 625041 787208
783 823181 715564
784 437378 306688
785 49948 117009
786 393824 310596
787 440781 301592
788 602245 758384
789 595495 782371
790 596142 762104
791 468205 957475
792 469753 977183
793 33004 103482
794 110767 541783
795 760565 264776
796 182172 17991
797 625441 779097
798 795786 663968
799 182713 9753
800 702509 879976
801 782073 250611
802 495872 1008302
803 479236 734179
804 904320 46237
805 757332 289730
806 310171 406362
807 720729 909092
808 96346 836753
809 771166 901353
810 505880 926505
811 749382 265057
812 910334 50187
813 703292 860732
814 368086 824668
815 244230 251973
816 761983 910243
817 727197 900902
818 812255 293619
819 773402 679857
820 783574 927366
821 624927 792841
822 278202 890154
823 316831 860453
824 610979 779148
825 741607 289232
826 86126 538020
827 616733 948793
828 703392 922552
829 809637 263159
830 609588 965867
831 619493 794959
832 629714 298499
833 439044 711986
834 302238 879210
835 197743 641096
836 369374 797282
837 469454 953698
838 226065 664636
839 972461 651862
840 773795 654300
841 88712 666912
842 785895 273312
843 512996 932253
844 642972 280384
845 447552 266049
846 761971 688373
847 761501 941412
848 650749 297756
849 214367 11231
850 969020 665128
851 796137 682800
852 449386 964235
853 767359 936305
854 784385 264918
855 124045 945000
856 719071 853924
857 166866 17984
858 464224 992189
859 60085 866095
860 627950 791167
861 893172 42983
862 81913 515812
863 42285 85881
864 595162 769389
865 809280 688208
866 623558 281401
867 652551 307348
868 1000749 633019
869 469539 723121
870 621730 781848
871 777174 645612
872 770218 691837
873 136325 508328
874 444668 299347
875 934154 649804
876 767693 908247
877 618060 984002
878 250581 908709
879 145320 948712
880 82353 530086
881 48466 813101
882 613527 1003467
883 757168 698534
884 518356 539030
885 712084 903026
886 470071 935691
887 823499 258606
888 982319 636675
889 66047 140934
890 120222 936856
891 107195 613150
892 780515 927759
893 607651 781467
894 106624 649761
895 298252 400082
896 801550 693820
897 603749 791168
898 994621 687064
899 628904 981752
900 366656 794359
901 780383 929049
902 89502 541494
903 754319 677129
904 33776 842537
905 527208 954799
906 725983 868023
907 767964 272271
908 138812 931340
909 713504 867839
910 878062 659424
911 264197 876183
912 187602 12713
913 294856 448074
914 245275 641472
915 421122 316776
916 79992 838400
917 599852 782282
918 206974 17822
919 598372 764530
920 903607 8724
921 725357 898105
922 891421 699627
923 235006 633065
924 99085 939339
925 30749 809679
926 454492 1009635
927 765266 930705
928 820574 680251
929 26185 87715
930 144922 976450
931 763312 916761
932 481800 1002856
933 606046 969267
934 385738 796001
935 744952 249519
936 972050 669477
937 482367 891761
938 578227 769846
939 909431 699513
940 906445 651687
941 904550 666720
942 406639 303173
943 170338 28843
944 459934 712418
945 895684 682106
946 108298 494799
947 772415 684547
948 754278 702598
949 891711 62563
950 94562 505872
951 168551 11659
952 275728 259154
953 486810 694807
954 360718 833398
955 600855 761372
956 342811 782394
957 254896 877767
958 746730 861439
959 731283 874933
960 741921 850700
961 774465 224641
962 205305 2078
963 773850 242797
964 789679 667857
965 709271 879918
966 94075 532367
967 468138 718896
968 48285 837761
969 293731 871736
970 751116 665823
971 777734 910268
972 756734 685046
973 80124 841703
974 440097 697346
975 666150 269320
976 676744 307765
977 178000 -2502
978 116267 961987
979 527299 908311
980 709530 862594
981 626216 942664
982 481002 737463
983 784218 695608
984 428159 297771
985 800318 693416
986 512668 580844
987 180567 12339
988 237604 640907
989 753049 305518
990 723039 876037
991 772711 668338
992 268354 444638
993 745439 666161
994 642477 791891
995 929984 672019
996 640114 281322
997 301350 882558
998 765838 915647
999 75786 682713
1000 285188 401771
1001 343959 790492
1002 790720 688398
1003 828051 304536
1004 280107 291378
1005 286974 437243
1006 144064 933997
1007 818588 659584
1008 251682 898019
1009 125225 954457
1010 760036 923621
1011 910836 49968
1012 924330 675131
1013 642346 791487
1014 768161 698074
1015 264853 281702
1016 794212 662121
1017 65531 820307
1018 828011 691390
1019 76837 666147
1020 985949 679026
1021 395943 301939
1022 894658 637694
1023 663505 289068
1024 589904 797708
1025 501446 585404
1026 227692 663776
1027 623055 785990
1028 759211 237546
1029 898372 25980
1030 800491 634915
1031 771746 655364
1032 789702 686541
1033 634366 946140
1034 739312 917237
1035 796921 260447
1036 804665 697373
1037 4120 92479
1038 42175 76037
1039 942366 49040
1040 267515 402357
1041 305042 399976
1042 771140 704869
1043 179612 34
1044 970483 622360
1045 821735 680922
1046 815352 685586
1047 794219 666020
1048 436442 325996
1049 519280 563189
1050 649326 953748
1051 819604 691764
1052 17561 95696
1053 1005223 636634
1054 379258 809218
1055 482804 908818
1056 607828 975953
1057 913347 678588
1058 290047 418398
1059 600090 941712
1060 296494 418032
1061 124348 489586
1062 453053 736883
1063 610001 980116
1064 640228 782446
1065 544939 555065
1066 495426 539296
1067 463109 703318
1068 742136 921898
1069 621568 967793
1070 244509 257641
1071 48629 824802
1072 1006955 650630
1073 785232 676551
1074 794360 299028
1075 289109 909857
1076 1541 105792
1077 133331 920314
1078 611297 261408
1079 301982 402254
1080 670508 302655
1081 747631 925106
1082 897572 44787
1083 813820 282193
1084 102596 529706
1085 182780 56751
1086 398743 282424
1087 646491 965477
1088 867883 660778
1089 73491 782046
1090 64505 661948
1091 43500 847634
1092 606869 800949
1093 761183 936214
1094 294262 424939
1095 250019 266312
1096 864440 49815
1097 726475 902424
1098 914147 19080
1099 514305 531071
1100 478355 920230
1101 427566 267457
1102 497337 888495
1103 586059 734007
1104 792205 691200
1105 156337 1146
1106 63467 841047
1107 101022 689444
1108 750210 896727
1109 437070 309005
1110 602209 747129
1111 694899 894804
1112 733099 269945
1113 636275 991043
1114 653702 990149
1115 140474 939911
1116 758179 286237
1117 901865 688700
1118 746063 920399
1119 618270 992137
1120 795326 273086
1121 312051 409001
1122 531896 573257
1123 602288 781925
1124 287122 437825
1125 391023 303287
1126 740938 671738
1127 -10687 109758
1128 796632 293394
1129 68510 100600
1130 762371 277859
1131 1007296 660470
1132 616109 797675
1133 792196 686797
1134 338636 820130
1135 282854 848683
1136 250986 885809
1137 72322 828567
1138 783174 691146
1139 781168 919617
1140 39079 109053
1141 620453 775901
1142 774253 258285
1143 656113 754805
1144 134327 668245
1145 270214 264279
1146 965352 671141
1147 781982 722882
1148 598908 775707
1149 873178 59240
1150 621959 283245
1151 751888 897783
1152 131753 921895
1153 249283 280034
1154 802597 707700
1155 760377 906489
1156 780621 671848
1157 289252 881603
1158 551703 536403
1159 389820 298831
1160 280596 906404
1161 92022 558408
1162 273858 252433
1163 108878 546204
1164 92575 662337
1165 407400 288313
1166 57014 835039
1167 48319 790011
1168 100649 637578
1169 893385 46484
1170 628837 760744
1171 402633 304192
1172 993428 668402
1173 767215 296158
1174 106336 530654
1175 262515 279578
1176 488906 988438
1177 179681 33279
1178 235316 630428
1179 630720 785642
1180 275211 418747
1181 756216 914697
1182 175275 21821
1183 102041 645617
1184 752283 901647
1185 -5904 95159
1186 624739 985061
1187 492735 924613
1188 61037 849505
1189 815543 693966
1190 763129 676042
1191 911361 44122
1192 276322 285230
1193 622026 274950
1194 122618 931664
1195 100364 534231
1196 167859 4827
1197 721791 883040
1198 611646 958970
1199 792357 686474
1200 794485 660711
1201 797735 292389
1202 274456 294543
1203 118741 502214
1204 458413 1019846
1205 281142 262498
1206 68949 535341
1207 207550 -1830
1208 519567 540030
1209 516340 933565
1210 751654 671609
1211 48076 830833
1212 919023 688855
1213 782270 686992
1214 443927 686800
1215 170285 45491
1216 805808 709615
1217 798294 702916
1218 373528 799857
1219 108247 949640
1220 798474 685621
1221 358232 817133
1222 39623 72323
1223 763062 282687
1224 575599 763784
1225 54131 811015
1226 107722 884669
1227 229409 623531
1228 188849 24119
1229 557805 522586
1230 171299 -517
1231 658677 276460
1232 286696 869779
1233 628810 944703
1234 59575 836724
1235 34436 98207
1236 727708 700905
1237 468284 686719
1238 506604 935582
1239 496405 749042
1240 323584 872349
1241 345359 833898
1242 536975 538156
1243 88115 819652
1244 703782 867553
1245 763754 284089
1246 909961 679285
1247 749449 894677
1248 163251 10469
1249 583285 774909
1250 909505 679660
1251 35878 112490
1252 30269 84109
1253 222330 631754
1254 662318 268506
1255 488387 921502
1256 84961 527075
1257 800726 268297
1258 512424 568452
1259 779627 687469
1260 753095 658556
1261 620453 1001178
1262 915812 35351
1263 178998 9866
1264 245632 268476
1265 297689 433360
1266 134640 939917
1267 641281 981814
1268 637002 967159
1269 615997 763816
1270 580174 777026
1271 770502 925841
1272 768596 672299
1273 629848 970591
1274 788379 680396
1275 434511 311208
1276 123781 514107
1277 778056 253705
1278 609230 962128
1279 83538 633699
1280 753074 651539
1281 397167 271630
1282 896990 683045
1283 251575 247965
1284 365450 827639
1285 639666 279194
1286 585700 759703
1287 545581 554553
1288 863471 38049
1289 237655 617783
1290 464379 748979
1291 613997 921769
1292 652671 1014472
1293 305754 861460
1294 499738 525636
1295 369131 766488
1296 278040 230204
1297 761018 932838
1298 645879 980072
1299 790487 947336
1300 750087 283978
1301 778747 690009
1302 49193 845818
1303 510159 939967
1304 605241 777403
1305 90936 647345
1306 279684 395243
1307 803680 668845
1308 79749 653682
1309 627795 805585
1310 141505 661996
1311 471256 1003297
1312 49955 803863
1313 261803 252237
1314 257405 624288
1315 523865 559525
1316 564147 928005
1317 769506 913673
1318 796774 250799
1319 274989 259108
1320 928455 718407
1321 426994 307025
1322 570889 777444
1323 736210 904675
1324 912007 22051
1325 278300 886798
1326 612853 969886
1327 115974 639780
1328 625328 981288
1329 716829 870378
1330 153195 948686
1331 94483 558399
1332 754603 248113
1333 134230 528481
1334 478660 1012297
1335 270932 875914
1336 765585 921473
1337 376666 837399
1338 522509 531133
1339 466894 985323
1340 124850 940858
1341 236501 625952
1342 504479 915552
1343 286630 269164
1344 249574 300525
1345 709731 865231
1346 423503 280484
1347 32111 113471
1348 754222 885952
1349 623340 965147
1350 282976 892760
1351 58650 496808
1352 68725 841731
1353 814308 278565
1354 -5557 83019
1355 791346 271543
1356 355614 794473
1357 368894 827951
1358 940925 694273
1359 798177 260493
1360 594473 759316
1361 201520 26272
1362 132322 926032
1363 777419 720422
1364 59136 857945
1365 301967 428592
1366 93735 541592
1367 630411 996238
1368 484867 924003
1369 267466 235357
1370 370746 828916
1371 576413 779666
1372 445779 711205
1373 911345 675187
1374 233060 247016
1375 646329 792145
1376 756862 928703
1377 432778 311556
1378 801923 301685
1379 613207 961349
1380 603001 785438
1381 310841 811286
1382 60457 127961
1383 315203 421395
1384 453153 707192
1385 487233 902644
1386 974939 676083
1387 696370 889481
1388 917748 48639
1389 191917 25563
1390 747907 906268
1391 293144 433828
1392 484017 679910
1393 679370 280400
1394 428236 266378
1395 611399 811400
1396 364740 803778
1397 222085 38718
1398 763202 283147
1399 288688 254377
1400 61131 859474
1401 314388 882548
1402 512287 933159
1403 181201 21433
1404 470804 705601
1405 508769 922542
1406 111453 996848
1407 462407 1008440
1408 789687 688262
1409 879155 660602
1410 612877 787962
1411 504298 915442
1412 698310 896603
1413 610604 736342
1414 639508 986044
1415 627023 950964
1416 586459 948968
1417 413168 310989
1418 446976 291572
1419 490564 711154
1420 867699 692273
1421 297366 448309
1422 634341 951191
1423 800933 679972
1424 355272 809636
1425 168414 -13504
1426 703486 879705
1427 143581 927192
1428 773403 249702
1429 770771 257304
1430 106302 540800
1431 925169 698160
1432 118599 945261
1433 119859 656794
1434 56059 827212
1435 686543 308458
1436 470797 717866
1437 621455 1003048
1438 472827 923102
1439 726074 891426
1440 271822 613114
1441 116548 628544
1442 807540 677068
1443 604094 970408
1444 457829 709436
1445 770943 671745
1446 764606 668584
1447 601479 774488
1448 560339 771647
1449 745262 279219
1450 785896 278309
1451 282863 855414
1452 584917 988454
1453 533892 536659
1454 709825 890387
1455 178658 8463
1456 250422 269689
1457 781682 669540
1458 768716 915074
1459 891387 46499
1460 782792 310536
1461 460185 1013758
1462 589915 287794
1463 262288 267627
1464 775472 723747
1465 611463 965863
1466 798682 685588
1467 508160 534722
1468 910663 684736
1469 607987 792454
1470 806943 259317
1471 77090 678879
1472 780674 276237
1473 480714 1018450
1474 752332 237957
1475 531723 552440
1476 640407 277875
1477 58694 806284
1478 498762 953111
1479 803044 646422
1480 464842 708439
1481 116850 526004
1482 267257 240441
1483 516682 915678
1484 779916 938182
1485 455654 699115
1486 789539 660579
1487 783581 905676
1488 14173 85397
1489 778861 273368
1490 527931 550445
1491 73772 810468
1492 540827 548459
1493 659396 754606
1494 370706 797560
1495 804878 686681
1496 88353 642264
1497 630159 920463
1498 459885 732761
1499 1001604 638200
1500 886642 75912
1501 795937 685766
1502 778655 901356
1503 892998 82533
1504 886069 68504
1505 138222 516836
1506 786275 664698
1507 517870 950144
1508 105817 520486
1509 606411 949963
1510 622310 778952
1511 610797 791666
1512 787034 664592
1513 587683 968941
1514 598174 270280
1515 465613 997049
1516 783340 709703
1517 529062 941334
1518 609814 946838
1519 758030 245091
1520 747704 668117
1521 153090 919135
1522 266291 850637
1523 254638 597454
1524 525775 544706
1525 916500 79294
1526 472329 983421
1527 717334 861296
1528 624040 289621
1529 808256 673550
1530 30324 122324
1531 29499 836432
1532 779022 666782
1533 130635 958782
1534 263003 424683
1535 36231 825387
1536 605681 971607
1537 771271 662423
1538 294731 232011
1539 131362 656564
1540 83587 828886
1541 759332 919121
1542 606462 925605
1543 637509 270960
1544 272388 432778
1545 272846 864903
1546 256480 891645
1547 993539 634753
1548 488044 720424
1549 649234 261654
1550 308065 417905
1551 471186 985828
1552 614612 966621
1553 757197 949655
1554 618774 954629
1555 774321 728716
1556 313117 400350
1557 184087 619198
1558 291438 423012
1559 425782 306992
1560 776765 670109
1561 128843 554923
1562 105569 508801
1563 793543 707078
1564 102904 654258
1565 395899 814190
1566 759694 229844
1567 368937 825068
1568 109479 542316
1569 147651 -20257
1570 774487 671900
1571 789652 707613
1572 892788 640831
1573 602160 787607
1574 235497 628458
1575 642932 267413
1576 596515 293230
1577 445535 983006
1578 545551 530251
1579 488186 1021126
1580 184384 3218
1581 644321 262532
1582 128127 663995
1583 866634 78821
1584 789229 235383
1585 704129 883657
1586 373617 816573
1587 592366 756291
1588 465101 1035505
1589 895302 704042
1590 641125 981015
1591 648683 973749
1592 288439 853297
1593 776600 671451
1594 96746 544712
1595 436445 979207
1596 282654 874480
1597 288700 462821
1598 429874 325430
1599 258227 900269
1600 780527 280472
1601 788623 917951
1602 52638 814800
1603 316329 418304
1604 629050 757007
1605 161109 2815
1606 281774 392274
1607 250097 272429
1608 777644 261975
1609 59031 823396
1610 304443 415300
1611 277175 901650
1612 578491 952875
1613 469862 1014205
1614 359809 824430
1615 309985 440815
1616 457825 724052
1617 522115 535425
1618 756499 298944
1619 363737 813416
1620 474434 1001112
1621 21976 104614
1622 25535 133187
1623 889534 652965
1624 473335 730120
1625 -242 80093
1626 616745 801125
1627 284152 419458
1628 613234 788126
1629 143805 965592
1630 35825 867094
1631 942107 636130
1632 523117 544462
1633 814382 675453
1634 211135 17092
1635 499486 932303
1636 298936 379152
1637 692024 861708
1638 787812 711561
1639 935360 67938
1640 792579 279970
1641 727046 923626
1642 148820 927907
1643 258663 220790
1644 76466 669109
1645 813167 702339
1646 76040 520556
1647 799183 282796
1648 123792 941748
1649 240268 660193
1650 986048 635116
1651 264021 406526
1652 278812 424002
1653 760091 878480
1654 73288 880174
1655 363095 785855
1656 96622 521461
1657 779375 272958
1658 767621 256333
1659 348211 825900
1660 632751 289280
1661 190616 -3443
1662 127658 533354
1663 291097 408083
1664 373771 827848
1665 766824 262450
1666 1007488 654394
1667 566257 749027
1668 288874 871228
1669 138102 959540
1670 129141 510228
1671 380771 807060
1672 430258 754285
1673 706222 883745
1674 22166 150073
1675 102332 620979
1676 68538 636847
1677 115642 975315
1678 31187 836918
1679 645324 980423
1680 36237 106353
1681 437602 740507
1682 802631 698548
1683 638254 306179
1684 194738 3347
1685 355514 803567
1686 445447 998162
1687 868048 65264
1688 151224 950763
1689 981338 617237
1690 355602 829776
1691 496844 917900
1692 896337 683187
1693 391028 793149
1694 128508 938804
1695 781570 672223
1696 617306 782825
1697 390833 813184
1698 315659 431150
1699 884789 693685
1700 240786 268920
1701 154550 48100
1702 808013 649673
1703 634601 780890
1704 749104 925796
1705 598979 791314
1706 111163 502427
1707 763253 673027
1708 472230 686162
1709 214865 634666
1710 408415 710295
1711 456184 968730
1712 234075 648592
1713 282831 238652
1714 603741 985582
1715 627138 796866
1716 248677 254625
1717 449365 705710
1718 162687 12347
1719 270992 909276
1720 793640 715994
1721 28848 821225
1722 270707 444109
1723 216718 672422
1724 919583 683148
1725 497776 1016305
1726 622704 958068
1727 793912 219329
1728 279789 445279
1729 350651 816238
1730 882719 53023
1731 256552 276228
1732 765157 647063
1733 762780 270317
1734 673491 337753
1735 645117 968027
1736 105187 527639
1737 137601 963246
1738 975537 641988
1739 167779 -2042
1740 262896 259003
1741 602200 910669
1742 517435 547694
1743 604208 770340
1744 734246 915144
1745 306313 258261
1746 925191 679396
1747 534385 545455
1748 239844 605443
1749 611432 761704
1750 531613 555211
1751 928847 55822
1752 358785 835774
1753 192000 617997
1754 310437 382454
1755 891194 75983
1756 414735 321593
1757 231512 646079
1758 293305 447641
1759 772375 272652
1760 505680 991708
1761 760147 310043
1762 157960 14928
1763 806066 273485
1764 589399 787588
1765 639286 962425
1766 774395 293798
1767 475845 950076
1768 153013 945010
1769 651017 303227
1770 101231 517124
1771 285057 297367
1772 147016 909801
1773 780042 663879
1774 136701 672108
1775 636431 966994
1776 356597 827301
1777 254677 256894
1778 87798 653920
1779 571254 773623
1780 766704 877563
1781 595509 774355
1782 361463 826417
1783 78079 628650
1784 52547 819105
1785 316340 409640
1786 74665 811154
1787 915070 72162
1788 209531 284742
1789 140265 970204
1790 430631 272551
1791 814655 681406
1792 624047 793413
1793 614780 270310
1794 808048 290408
1795 110907 527151
1796 934168 641563
1797 664663 283187
1798 623650 963578
1799 424484 268245
1800 339408 801016
1801 492770 930862
1802 748659 910015
1803 124800 660085
1804 332866 809172
1805 631375 268570
1806 609779 1011988
1807 117600 516763
1808 219194 621590
1809 402884 285824
1810 736825 712319
1811 805630 241444
1812 208991 665768
1813 226293 609738
1814 795934 267612
1815 46588 133898
1816 325940 446109
1817 114647 519207
1818 460935 699147
1819 293111 436250
1820 994238 643702
1821 609389 976262
1822 106990 950368
1823 -1118 94867
1824 797016 691344
1825 787287 272133
1826 763610 677657
1827 172928 944514
1828 140031 952223
1829 398873 260529
1830 987235 668838
1831 774409 667031
1832 615146 788109
1833 236141 650440
1834 626206 301585
1835 590976 784286
1836 541186 922560
1837 102862 622329
1838 115154 635702
1839 613341 944794
1840 713531 892029
1841 601745 995942
1842 447421 722953
1843 638004 963944
1844 762528 674556
1845 160632 18865
1846 635175 992724
1847 765861 685492
1848 928753 673633
1849 601755 771806
1850 120251 630657
1851 512521 542024
1852 188409 9657
1853 663511 740553
1854 527866 936337
1855 967818 651629
1856 624045 267056
1857 248931 631557
1858 780705 692590
1859 179294 20072
1860 612856 966767
1861 629801 950994
1862 231169 629485
1863 515535 560558
1864 135967 526567
1865 504131 868919
1866 913893 666549
1867 618072 953378
1868 495796 922383
1869 630757 952380
1870 800549 671803
1871 609512 771598
1872 282841 445144
1873 522026 982865
1874 469316 718814
1875 103094 510501
1876 446504 287995
1877 606964 769844
1878 627428 286926
1879 801306 278118
1880 209649 7814
1881 470035 967234
1882 249317 851003
1883 131309 987042
1884 290522 890512
1885 639984 983755
1886 439563 717696
1887 182833 -10861
1888 935621 52931
1889 266441 609330
1890 196424 24518
1891 608138 770445
1892 742960 266296
1893 493292 959485
1894 634938 780939
1895 138988 934701
1896 468908 690667
1897 990902 634276
1898 815727 707906
1899 492856 937883
1900 269066 250172
1901 493410 886358
1902 806088 699071
1903 212862 646711
1904 803003 701018
1905 119361 914896
1906 61384 846131
1907 585387 767013
1908 502746 935264
1909 432845 998525
1910 469315 745359
1911 596477 809186
1912 741451 932289
1913 456891 979385
1914 184578 32100
1915 100215 519270
1916 91833 662964
1917 323701 420711
1918 975993 649682
1919 263186 265333
1920 1013269 641973
1921 991112 668742
1922 240019 652542
1923 273988 868330
1924 455494 1026532
1925 667539 998468
1926 453638 707258
1927 554054 767158
1928 514830 910128
1929 755455 888656
1930 817157 698722
1931 26690 808221
1932 368913 820800
1933 303033 438725
1934 515126 701475
1935 118209 655461
1936 87539 504423
1937 479649 721856
1938 593597 971141
1939 609579 966402
1940 895123 684547
1941 273466 439082
1942 406567 818990
1943 787727 284685
1944 95625 676819
1945 232319 629036
1946 97843 545566
1947 662838 972523
1948 768218 675940
1949 1000164 622457
1950 811667 267566
1951 482222 968079
1952 297415 881292
1953 484428 728330
1954 752621 267724
1955 608539 977253
1956 92361 663400
1957 643761 767073
1958 57223 844308
1959 813471 296686
1960 39673 842342
1961 991230 680750
1962 640948 969027
1963 -5235 106816
1964 290570 433399
1965 471971 978592
1966 203693 1763
1967 745525 652984
1968 565184 774065
1969 968687 676582
1970 768756 642962
1971 601626 966596
1972 378084 797972
1973 718628 868084
1974 196213 61136
1975 732968 669519
1976 84792 530963
1977 460288 707889
1978 775135 273821
1979 207842 638662
1980 751138 682249
1981 438095 1017325
1982 734992 288665
1983 516829 532070
1984 620064 986439
1985 791849 918404
1986 154387 9275
1987 1002984 666345
1988 459384 722669
1989 616950 800737
1990 902104 661150
1991 746253 272442
1992 892932 679064
1993 404966 302481
1994 807956 278893
1995 118399 540160
1996 776196 929467
1997 114011 921859
1998 902820 42305
1999 192601 17190
2000 797974 263126
2001 623141 962402
2002 94431 667910
2003 896095 656167
2004 759090 299223
2005 263328 650482
2006 702943 851728
2007 423352 263247
2008 922915 42203
2009 754542 938901
2010 784465 697629
2011 571160 755081
2012 778232 670864
2013 173652 33294
2014 506663 539324
2015 754223 225060
2016 28878 98633
2017 515820 926456
2018 299244 206750
2019 371688 836848
2020 238922 643118
2021 59015 831422
2022 771406 703940
2023 54478 824009
2024 791065 648775
2025 776105 916429
2026 522985 535699
2027 984293 635806
2028 284193 866313
2029 645985 776609
2030 633570 268027
2031 774497 255574
2032 758179 256460
2033 174926 9112
2034 109275 660133
2035 121271 655499
2036 50484 816646
2037 90979 654430
2038 171220 940403
2039 752281 682466
2040 101545 535552
2041 151486 932422
2042 874104 80454
2043 629002 978267
2044 98979 642878
2045 59124 536137
2046 773807 269499
2047 82413 801362
2048 814925 682729
2049 98507 520234
2050 784529 684566
2051 769202 273540
2052 736208 916858
2053 648818 313946
2054 120160 665088
2055 789435 688448
2056 793069 685850
2057 746877 702997
2058 794799 698833
2059 725907 864709
2060 727965 888433
2061 917678 673963
2062 788389 289465
2063 104426 531126
2064 90050 834730
2065 763845 267954
2066 432045 302004
2067 209426 29145
2068 434926 302386
2069 113144 660948
2070 481567 978152
2071 434734 303698
2072 111556 527136
2073 783643 715079
2074 41576 94319
2075 449996 711175
2076 114681 524088
2077 768367 295547
2078 245068 232482
2079 727226 670031
2080 768629 651204
2081 978494 669914
2082 888037 57303
2083 429089 297411
2084 755847 266530
2085 820459 254849
2086 96671 961351
2087 778745 679350
2088 282917 872278
2089 791457 715080
2090 98666 533655
2091 501392 932557
2092 484134 942983
2093 141729 542742
2094 1004929 626921
2095 193163 15505
2096 59265 873860
2097 789008 244094
2098 235729 248060
2099 615281 771835
2100 626835 960249
2101 294927 403368
2102 594902 779240
2103 776220 668733
2104 621490 985019
2105 463497 995235
2106 625994 985628
2107 27528 138256
2108 466176 997750
2109 105010 482386
2110 892244 658418
2111 20220 92366
2112 619269 253831
2113 23875 106734
2114 482443 723749
2115 497539 914972
2116 455726 1004519
2117 245421 600808
2118 583742 781717
2119 106965 660374
2120 751887 667140
2121 -3649 103655
2122 587372 766350
2123 107042 667516
2124 883556 76758
2125 876887 43757
2126 141434 936982
2127 788638 681869
2128 771124 286558
2129 637342 985958
2130 92397 522438
2131 283893 456355
2132 983438 672546
2133 486761 974353
2134 119040 648232
2135 410431 985031
2136 825176 695483
2137 786152 660877
2138 664865 1000115
2139 270251 856674
2140 755970 938428
2141 69335 637882
2142 722874 867303
2143 420001 297107
2144 227488 282182
2145 252267 881062
2146 440752 1001486
2147 82332 646797
2148 463520 709416
2149 751325 264699
2150 485628 912249
2151 777893 679366
2152 231156 636363
2153 397973 302256
2154 908847 41068
2155 218527 5392
2156 450901 722138
2157 813286 280952
2158 749481 943186
2159 616092 777508
2160 438469 322346
2161 616218 769277
2162 305480 856960
2163 188282 -3594
2164 760086 939806
2165 109579 664586
2166 784427 679164
2167 642521 302182
2168 76304 834696
2169 469815 710756
2170 38261 833889
2171 897504 682211
2172 621265 268946
2173 760105 690981
2174 890663 653128
2175 907536 696610
2176 597575 986528
2177 612722 271760
2178 520525 922651
2179 528525 939739
2180 513164 926202
2181 92808 655792
2182 165018 -5625
2183 515202 535110
2184 771358 699417
2185 907888 663531
2186 412409 296149
2187 425010 274808
2188 98753 525356
2189 249019 907503
2190 626924 762772
2191 770011 270049
2192 111846 951655
2193 730786 883609
2194 254038 294216
2195 506659 964316
2196 347329 805741
2197 718809 865233
2198 70549 620333
2199 30880 840647
2200 41309 829006
2201 765021 932722
2202 93194 511720
2203 97422 624328
2204 443291 1015552
2205 279601 434587
2206 448985 1017487
2207 653350 806155
2208 900207 59294
2209 42265 107590
2210 995445 674453
2211 281774 847172
2212 463440 704279
2213 761848 909379
2214 39161 116525
2215 889067 688890
2216 499681 993681
2217 785471 265564
2218 310311 417616
2219 800240 643110
2220 98566 555919
2221 770671 915326
2222 769555 288758
2223 270475 855689
2224 373238 796202
2225 475210 694453
2226 774986 294470
2227 524808 532797
2228 255461 884610
2229 119943 965109
2230 337614 790179
2231 516237 548422
2232 166106 22608
2233 104006 533290
2234 554539 545167
2235 878483 70781
2236 785836 294343
2237 270517 246885
2238 149411 15055
2239 795206 686728
2240 13403 85595
2241 1006199 632506
2242 789096 284694
2243 761101 889573
2244 755819 912763
2245 125340 931623
2246 1019167 649338
2247 478270 957477
2248 624005 978188
2249 741339 900624
2250 794478 265093
2251 761715 666675
2252 764741 892154
2253 766314 689223
2254 641065 982566
2255 784530 241776
2256 51039 108341
2257 725086 876828
2258 899283 689206
2259 900799 701073
2260 380835 833007
2261 957384 651456
2262 32816 102574
2263 454113 307585
2264 620247 974554
2265 776614 695790
2266 926887 654356
2267 677846 756712
2268 792629 653836
2269 613490 985639
2270 721794 268030
2271 281263 895601
2272 1010005 636617
2273 999905 659767
2274 773503 686097
2275 261354 244220
2276 620392 787458
2277 894505 646416
2278 126652 525868
2279 628460 270629
2280 301812 408673
2281 595060 798109
2282 275002 259727
2283 438319 724060
2284 642389 773272
2285 607061 813588
2286 106027 642311
2287 698915 862131
2288 966786 634468
2289 50775 820945
2290 117162 577387
2291 111294 510144
2292 761582 653390
2293 907964 76605
2294 97298 684509
2295 427304 712683
2296 275931 913218
2297 636036 940358
2298 642807 286552
2299 501650 915900
2300 473540 989179
2301 92753 635820
2302 509994 558375
2303 765047 681301
2304 763224 308840
2305 634900 953525
2306 129247 655420
2307 85510 529994
2308 635652 277098
2309 783894 698388
2310 109630 936235
2311 787765 668361
2312 383057 802560
2313 85056 672476
2314 627339 765537
2315 813438 284143
2316 908401 661387
2317 293007 439690
2318 89022 522670
2319 603984 956551
2320 434010 283564
2321 111956 518779
2322 794279 687943
2323 818548 673223
2324 802632 275276
2325 619190 786460
2326 461579 708569
2327 306277 405712
2328 994467 675776
2329 757496 674694
2330 213276 670344
2331 469872 1001025
2332 972547 649442
2333 276560 424762
2334 246392 652654
2335 735284 302953
2336 294773 415148
2337 834188 669619
2338 270680 903794
2339 777725 255732
2340 754818 284296
2341 193134 639558
2342 421002 325741
2343 638859 956123
2344 104996 526275
2345 737841 283171
2346 120603 665509
2347 265310 415806
2348 385577 783794
2349 913189 654796
2350 705762 879970
2351 791215 687056
2352 653645 291255
2353 209556 628094
2354 59498 841837
2355 16844 114518
2356 660643 987158
2357 275762 889245
2358 508931 943735
2359 351952 833522
2360 607486 786951
2361 529341 521915
2362 107439 953242
2363 884361 58439
2364 832526 262221
2365 629947 946491
2366 625276 238531
2367 777600 261401
2368 625865 957147
2369 120438 946514
2370 255726 244924
2371 797329 683037
2372 751334 680153
2373 439121 733669
2374 428497 322188
2375 254445 874523
2376 781680 226655
2377 607084 813455
2378 733717 269268
2379 15406 123273
2380 426575 310938
2381 461152 993036
2382 168468 53500
2383 954073 49497
2384 554596 528021
2385 789479 641486
2386 88919 673017
2387 246956 881542
2388 220697 245877
2389 314114 903120
2390 635413 977340
2391 625662 931045
2392 812366 258782
2393 304009 888415
2394 450995 1020599
2395 755129 264917
2396 814361 244031
2397 172374 965589
2398 775812 691872
2399 972248 654596
2400 790554 703692
2401 65874 817988
2402 290328 282617
2403 607327 765999
2404 749571 677878
2405 770113 276863
2406 697063 886271
2407 500090 935703
2408 770000 682396
2409 602916 776846
2410 907768 672292
2411 102002 625547
2412 976100 671807
2413 492555 535018
2414 220079 632465
2415 512775 553941
2416 537768 535196
2417 637066 795255
2418 902285 677064
2419 762375 922173
2420 770039 919602
2421 82211 855173
2422 230999 642821
2423 315806 422617
2424 622271 284679
2425 48485 90019
2426 723267 889583
2427 249282 270531
2428 88424 843267
2429 612788 970843
2430 791655 672118
2431 217449 19138
2432 35176 113450
2433 297071 892367
2434 608284 768268
2435 102284 538161
2436 455438 707525
2437 101524 654672
2438 67956 839393
2439 378837 832233
2440 364500 813915
2441 188138 4128
2442 27695 133097
2443 966442 659048
2444 785524 288912
2445 740910 267225
2446 232137 238535
2447 588615 775324
2448 806273 680910
2449 780174 695446
2450 830759 681037
2451 296864 418557
2452 765263 905942
2453 83377 651942
2454 48743 130432
2455 759794 709414
2456 125084 530618
2457 33868 822199
2458 264320 626786
2459 159516 -511
2460 748160 874727
2461 267482 248943
2462 629525 963432
2463 26845 110077
2464 724437 918406
2465 741407 279745
2466 122076 546245
2467 496196 943911
2468 611145 776575
2469 178816 50448
2470 379217 824451
2471 629294 798217
2472 652524 803991
2473 750893 918471
2474 634443 307165
2475 97890 695116
2476 920675 645063
2477 414050 294763
2478 917802 27008
2479 609135 794901
2480 450145 1024698
2481 39493 73684
2482 793867 690297
2483 510457 532377
2484 161759 4510
2485 745870 873906
2486 262821 874848
2487 307575 428885
2488 809300 707435
2489 522299 924074
2490 122072 546635
2491 104415 531638
2492 306771 415690
2493 126141 936802
2494 381117 278902
2495 787461 685870
2496 365353 803506
2497 791522 675892
2498 533889 568639
2499 361256 815115
2500 758645 691286
2501 70882 802894
2502 789271 646170
2503 676349 939402
2504 76697 522939
2505 127605 650646
2506 25205 835974
2507 802720 265411
2508 647726 299825
2509 110801 672722
2510 109297 680741
2511 538947 547272
2512 540415 910892
2513 191216 7292
2514 797761 278825
2515 395993 281607
2516 71747 823142
2517 316460 449601
2518 39420 844786
2519 918926 68366
2520 51871 833962
2521 727842 664373
2522 727646 896815
2523 465048 737757
2524 186566 9584
2525 605590 952239
2526 778211 681482
2527 331971 804745
2528 267150 260676
2529 26210 117699
2530 903301 60419
2531 438851 314219
2532 770557 279714
2533 707452 874976
2534 66289 821264
2535 272197 903289
2536 733709 918013
2537 905352 653649
2538 748485 905969
2539 477763 988134
2540 501334 548450
2541 797903 669035
2542 745774 283611
2543 137642 40836
2544 1059 119595
2545 770316 900123
2546 648387 299935
2547 502789 558452
2548 626569 937697
2549 623019 297655
2550 296099 894555
2551 361503 832691
2552 754467 908364
2553 49419 815253
2554 777160 682418
2555 754009 282742
2556 761615 255628
2557 481095 1007319
2558 515172 938313
2559 875793 60260
2560 363432 838226
2561 512010 938795
2562 463622 1007328
2563 833209 707639
2564 127236 965601
2565 254122 597500
2566 787858 270994
2567 246521 634996
2568 473434 928526
2569 162400 926237
2570 479379 997297
2571 772983 667985
2572 109224 656937
2573 275749 466520
2574 244722 621125
2575 614840 780996
2576 307093 399589
2577 641483 982698
2578 257240 645774
2579 116274 496699
2580 750955 920350
2581 223426 666592
2582 463059 699661
2583 217897 622904
2584 794811 279225
2585 771606 920422
2586 113043 523393
2587 97511 509817
2588 134254 655534
2589 753891 915136
2590 384048 820620
2591 475417 738259
2592 934415 36582
2593 756624 930455
2594 257376 847830
2595 117681 538212
2596 575148 770292
2597 326613 416584
2598 783497 910817
2599 469464 974567
2600 83088 512241
2601 799972 252114
2602 514139 528649
2603 771700 895876
2604 116261 532204
2605 150453 948340
2606 483339 577717
2607 40677 114944
2608 783101 242135
2609 158873 13194
2610 250390 669052
2611 28266 168043
2612 759768 671287
2613 234893 640452
2614 634323 284983
2615 752596 667220
2616 608736 981123
2617 434156 278955
2618 541497 559233
2619 619034 961518
2620 78344 548146
2621 614433 789747
2622 647252 943761
2623 408845 312065
2624 919316 646311
2625 206951 36831
2626 920805 683318
2627 627397 984618
2628 756259 928509
2629 434524 288489
2630 215564 624218
2631 79852 838109
2632 938665 32306
2633 1023049 637963
2634 611644 779123
2635 522770 547766
2636 1011879 662660
2637 470507 724845
2638 494571 739171
2639 42426 130597
2640 785340 903336
2641 552144 545727
2642 267421 667850
2643 640063 808448
2644 804603 684257
2645 474149 693472
2646 452480 277210
2647 114682 936727
2648 640743 944916
2649 921914 633885
2650 636743 306168
2651 522683 514811
2652 202074 639035
2653 129646 495460
2654 995130 662591
2655 689147 872210
2656 589550 787994
2657 292729 235114
2658 751928 946918
2659 758427 673819
2660 786099 253416
2661 779929 284297
2662 825019 679145
2663 46497 838656
2664 724061 881753
2665 757367 899862
2666 612973 948177
2667 878515 658019
2668 249671 626353
2669 38380 83157
2670 619830 756477
2671 426550 287821
2672 228903 632872
2673 542311 550738
2674 902939 39768
2675 145428 932272
2676 731186 856128
2677 945784 644855
2678 768060 698138
2679 613442 975642
2680 417747 299151
2681 81419 657708
2682 374297 792432
2683 633999 783573
2684 819062 681093
2685 748769 669142
2686 465640 745808
2687 41585 101196
2688 10065 844400
2689 736329 271428
2690 146584 935938
2691 286620 268329
2692 228675 248201
2693 615269 950959
2694 768887 691541
2695 918776 661393
2696 661496 265786
2697 886866 32751
2698 832784 705741
2699 759502 665971
2700 141106 952590
2701 723222 896148
2702 279685 434009
2703 326798 444819
2704 546561 569155
2705 784161 255233
2706 58656 517404
2707 571012 750656
2708 784834 931734
2709 909448 76312
2710 95158 665989
2711 744220 274880
2712 767162 654116
2713 602833 773471
2714 133818 960055
2715 529354 534171
2716 771230 224170
2717 470973 686560
2718 699841 872085
2719 759646 885214
2720 600679 777383
2721 394846 784020
2722 363149 827250
2723 302050 432281
2724 108127 551967
2725 788784 685809
2726 489379 911272
2727 794899 683463
2728 804169 661121
2729 237609 624362
2730 811231 696435
2731 618273 791868
2732 8967 81606
2733 917250 695015
2734 528793 931555
2735 779559 247774
2736 329769 832993
2737 787512 897686
2738 4875 135196
2739 774558 699246
2740 18695 85052
2741 231444 635611
2742 427363 291929
2743 479944 1000787
2744 713972 872825
2745 348689 801439
2746 432332 329076
2747 269585 243445
2748 363876 810088
2749 79510 521616
2750 587152 773299
2751 37430 843703
2752 899766 653921
2753 39022 99978
2754 655681 948166
2755 296458 860376
2756 601298 761757
2757 25972 92015
2758 595760 976166
2759 246021 603793
2760 191522 7989
2761 922508 71561
2762 110069 943785
2763 762044 920519
2764 631267 757712
2765 479137 722493
2766 744305 264440
2767 757843 936049
2768 616474 774315
2769 352677 813844
2770 579793 794293
2771 472531 934908
2772 604174 967367
2773 124982 509388
2774 77166 688319
2775 890911 653679
2776 483956 936235
2777 14271 102053
2778 538884 535075
2779 388956 800064
2780 758315 930444
2781 631803 755095
2782 119852 653876
2783 291187 886384
2784 256296 412021
2785 760108 665620
2786 416470 327703
2787 495285 913137
2788 490290 515952
2789 520026 922084
2790 284086 412809
2791 264964 250426
2792 610046 959185
2793 801915 674492
2794 714249 885315
2795 536396 557315
2796 755793 693143
2797 492200 940880
2798 117821 536730
2799 281906 864536
2800 628020 276838
2801 962163 650947
2802 468559 749412
2803 698091 884117
2804 704669 880321
2805 23930 87916
2806 780147 700657
2807 875467 66170
2808 744320 953372
2809 99518 545661
2810 446954 742394
2811 521483 546725
2812 792147 686145
2813 538795 534164
2814 781528 942428
2815 788788 233657
2816 896171 647999
2817 636953 284698
2818 895229 50640
2819 620805 955287
2820 253047 240627
2821 627556 779369
2822 338124 806861
2823 773535 277485
2824 275194 287927
2825 117900 680626
2826 466884 964271
2827 609063 293371
2828 600560 772301
2829 522889 938592
2830 615431 959992
2831 773348 240835
2832 374370 794793
2833 613502 970995
2834 -465 115997
2835 612588 282498
2836 800626 288716
2837 870522 670844
2838 875293 670206
2839 495742 945917
2840 985168 642103
2841 -13167 90362
2842 972115 646739
2843 472907 703849
2844 287081 435722
2845 667722 271305
2846 654711 974956
2847 971246 641411
2848 724605 860002
2849 601964 997509
2850 618513 979741
2851 619778 978361
2852 300285 422260
2853 745445 680616
2854 776764 693118
2855 228336 224551
2856 135650 662872
2857 761720 254513
2858 705403 898659
2859 473606 717037
2860 265126 261376
2861 751449 681994
2862 111979 541386
2863 594460 914589
2864 413349 296312
2865 419953 740185
2866 212519 654557
2867 764594 716775
2868 611541 958452
2869 20510 120075
2870 790062 933908
2871 809160 244752
2872 37899 804668
2873 512667 534124
2874 631128 801489
2875 647994 940111
2876 771169 266574
2877 526659 923104
2878 623731 799948
2879 450810 730846
2880 260069 246387
2881 717916 871358
2882 552205 550699
2883 965018 649403
2884 105325 662209
2885 1001223 657073
2886 790581 228022
2887 433831 986384
2888 795066 270042
2889 448933 1002864
2890 49973 837652
2891 451527 726229
2892 782328 278605
2893 239576 650905
2894 613657 784259
2895 200499 23338
2896 371511 848194
2897 890529 699099
2898 710865 259259
2899 485558 734176
2900 911969 38287
2901 629314 951984
2902 602143 985550
2903 715048 884083
2904 185654 57718
2905 564728 516609
2906 150478 16234
2907 195542 44161
2908 802976 720366
2909 43035 828240
2910 648011 957965
2911 747731 920572
2912 710958 887031
2913 608646 749701
2914 508808 913712
2915 644146 287739
2916 349300 822371
2917 114543 938920
2918 510386 707024
2919 135824 933706
2920 922412 673397
2921 424752 316746
2922 77561 676302
2923 981979 634843
2924 620732 951550
2925 630218 986513
2926 379188 841014
2927 801075 692575
2928 865314 53384
2929 456677 1008716
2930 631634 962732
2931 990996 655397
2932 436895 320274
2933 130894 942700
2934 599640 760522
2935 727923 868324
2936 819765 701817
2937 267591 274073
2938 92986 521531
2939 102058 556603
2940 773870 266066
2941 606947 994778
2942 784224 674826
2943 893380 695747
2944 115124 502966
2945 603512 986713
2946 40878 99621
2947 771924 258544
2948 889689 674966
2949 151045 970260
2950 215068 603259
2951 815529 695006
2952 430504 289432
2953 360755 804002
2954 338727 803290
2955 430721 262328
2956 70350 646625
2957 990979 682960
2958 518708 561337
2959 481258 1011155
2960 584104 769878
2961 26472 133860
2962 628795 256913
2963 38590 124620
2964 324471 406062
2965 508016 927928
2966 605029 971088
2967 781986 236203
2968 462157 1001605
2969 134867 520341
2970 430687 316694
2971 112924 627721
2972 33826 120086
2973 622939 290848
2974 642525 935945
2975 298146 423451
2976 783961 661004
2977 321396 431625
2978 644786 264071
2979 243161 632165
2980 598417 754807
2981 249785 247945
2982 736799 893713
2983 974252 663126
2984 219504 631915
2985 723542 853046
2986 1001519 677831
2987 587311 782718
2988 13676 97663
2989 810723 702788
2990 422419 304582
2991 430214 321735
2992 554388 542987
2993 118206 650225
2994 62491 135222
2995 633468 957183
2996 164210 5463
2997 480533 994752
2998 767363 669607
2999 789744 684062
3000 920959 73337
3001 294151 399962
3002 645812 988289
3003 116600 952473
3004 898866 647357
3005 890915 65231
3006 645625 279291
3007 585069 968222
3008 897823 75210
3009 742047 864123
3010 791371 289366
3011 606638 987269
3012 385846 317552
3013 489963 927380
3014 618328 1000760
3015 289248 905905
3016 407192 257919
3017 818848 695032
3018 211728 2874
3019 622357 769404
3020 769884 912372
3021 246431 279010
3022 503585 1029396
3023 876678 659616
3024 197006 622040
3025 616994 810224
3026 135311 955321
3027 732831 234837
3028 770886 678636
3029 513687 533076
3030 128826 968209
3031 360455 801066
3032 740065 870919
3033 457690 709824
3034 97367 634419
3035 9837 87351
3036 890140 674927
3037 771586 700768
3038 459509 988643
3039 453976 1002459
3040 645055 749345
3041 722568 903284
3042 908660 649116
3043 985598 654777
3044 500777 556607
3045 220854 638712
3046 649910 285783
3047 650101 277760
3048 774761 666345
3049 504866 538566
3050 626292 771180
3051 461784 995796
3052 253874 914255
3053 768790 265456
3054 754022 901128
3055 761260 664070
3056 302524 410552
3057 596411 962291
3058 534263 545451
3059 236598 630715
3060 54554 815418
3061 978563 655798
3062 240027 662805
3063 649369 783284
3064 946082 656616
3065 46720 827841
3066 116692 657988
3067 646956 755901
3068 976992 665373
3069 450801 285860
3070 817388 710789
3071 814231 678068
3072 905659 661421
3073 410699 301188
3074 297092 884289
3075 636258 767104
3076 806683 681862
3077 94238 662632
3078 992144 661810
3079 468246 734388
3080 752892 251550
3081 442866 309914
3082 50506 116066
3083 272303 889571
3084 774791 682629
3085 382253 805084
3086 729886 851743
3087 107437 498176
3088 631932 988314
3089 103519 632926
3090 713441 903833
3091 275717 853337
3092 34742 819322
3093 293132 888976
3094 231600 644080
3095 564469 547128
3096 767806 661218
3097 303827 421608
3098 124631 542453
3099 96358 616943
3100 940538 646293
3101 637860 965984
3102 163665 956484
3103 322685 420791
3104 697589 887627
3105 331623 405421
3106 81400 484630
3107 460399 725902
3108 786554 646893
3109 996331 645883
3110 102108 530096
3111 251846 879226
3112 772498 937098
3113 216217 274150
3114 485409 983139
3115 985016 670924
3116 225777 22927
3117 234968 876605
3118 676832 883098
3119 757675 910365
3120 263685 253360
3121 578942 783838
3122 443147 1008030
3123 442738 308741
3124 618459 958725
3125 623969 967346
3126 438209 315038
3127 311558 440270
3128 625702 973173
3129 760386 681071
3130 418246 301597
3131 1007154 638409
3132 139270 972817
3133 81233 825099
3134 514184 517114
3135 120064 514943
3136 803742 904607
3137 459048 669533
3138 242422 251054
3139 984381 643564
3140 742698 878648
3141 93839 650203
3142 522185 563808
3143 806295 652767
3144 247402 224537
3145 243066 619143
3146 125903 563010
3147 22982 89089
3148 112943 635582
3149 624743 956326
3150 426910 311368
3151 138080 962783
3152 753982 300571
3153 295134 436970
3154 607412 265349
3155 113326 660829
3156 103874 912435
3157 743259 869157
3158 259264 245655
3159 626183 784666
3160 435551 311962
3161 505213 536265
3162 488619 907224
