NAME : portcgen-1000-10002
COMMENT : portcgen N=1000, seed=10002
TYPE : TSP
DIMENSION : 1000
EDGE_WEIGHT_TYPE : EUC_2D
NODE_COORD_SECTION
1 789760 1007479
2 596611 384120
3 762334 1043788
4 753783 972406
5 118871 25531
6 798667 35980
7 871622 39200
8 893842 164446
9 190504 350276
10 748106 954495
11 727649 1030035
12 731249 1026174
13 642533 376662
14 178087 343365
15 859134 61816
16 211294 350015
17 561624 352505
18 815067 30472
19 849694 74574
20 160030 341538
21 867382 88328
22 867491 121645
23 875971 107880
24 662963 707133
25 548375 396613
26 565085 402421
27 875184 67642
28 812858 86503
29 202656 357019
30 150523 330050
31 845421 66592
32 835280 40236
33 836744 129621
34 759105 663601
35 695907 388872
36 860149 86500
37 880353 74903
38 878098 63014
39 592926 625232
40 834341 110284
41 902222 115262
42 113579 656477
43 873627 26550
44 76977 64452
45 185436 333062
46 156260 360046
47 163167 665169
48 235725 387868
49 850061 72682
50 681883 379137
51 150968 350640
52 106012 13889
53 661326 435223
54 842994 23059
55 196190 318936
56 685303 685623
57 522097 432526
58 797739 118430
59 865789 94303
60 717926 408705
61 154146 338577
62 117016 271334
63 645107 646024
64 536551 414634
65 127767 643902
66 888360 118519
67 164780 343133
68 631954 704118
69 194419 351561
70 675704 717056
71 149389 665622
72 145399 28914
73 194877 377562
74 889385 81313
75 594569 363369
76 854334 69746
77 605883 394358
78 189591 389409
79 910273 78834
80 863603 71432
81 173150 316766
82 746909 971314
83 189051 305868
84 195174 356142
85 792199 1014408
86 690798 652767
87 586958 441013
88 917982 67596
89 617439 636732
90 861444 87581
91 857447 118402
92 220069 324912
93 162874 352205
94 809527 73106
95 176257 363723
96 534059 465671
97 550223 431043
98 139297 681834
99 885949 51358
100 237778 376576
101 888247 144585
102 711114 372745
103 631447 720623
104 750626 696349
105 158483 333968
106 628111 390764
107 528859 443210
108 681755 401181
109 737417 984279
110 745689 1052461
111 842727 110708
112 225979 312785
113 92055 49735
114 600145 381567
115 725466 394210
116 672371 435157
117 179148 333094
118 161057 678136
119 621228 670836
120 854932 63791
121 150429 325935
122 186215 339614
123 782887 1017203
124 169784 -4014
125 127545 712394
126 189847 317546
127 628688 663421
128 140719 698672
129 658803 361155
130 855934 80080
131 92805 -10025
132 792443 984227
133 217652 323424
134 680385 660522
135 799852 1032208
136 896929 122060
137 200411 6457
138 180414 395506
139 673801 439104
140 848533 80443
141 497054 414704
142 796402 998411
143 871482 94919
144 654564 695017
145 599701 416144
146 833535 45587
147 812180 55137
148 885922 93026
149 629448 673915
150 770040 1029147
151 541766 378792
152 133498 54409
153 847670 131229
154 80495 15719
155 704412 390145
156 47314 12078
157 842906 75795
158 137913 82168
159 596654 707944
160 180750 10576
161 195023 342315
162 579778 429000
163 168278 316313
164 801179 62028
165 122168 328636
166 890981 97139
167 570335 412217
168 654627 391694
169 202268 -23541
170 843333 90449
171 883840 87018
172 131674 35922
173 149033 9492
174 85610 662512
175 619027 444666
176 746575 429866
177 220205 320367
178 622083 398529
179 129660 52129
180 125364 612657
181 870971 71890
182 683765 414942
183 683524 423721
184 730560 359882
185 132655 685809
186 501208 390276
187 701927 366168
188 202344 369620
189 148583 380214
190 659428 679304
191 187573 624327
192 152939 1875
193 791378 982347
194 688907 688931
195 209079 569473
196 161545 615024
197 120122 23976
198 582892 370367
199 210495 344471
200 767951 1017538
201 684590 378426
202 862083 56641
203 193909 2526
204 754475 968511
205 835633 81854
206 836517 80233
207 857535 136126
208 740121 956713
209 271042 308386
210 131980 360004
211 792993 99984
212 656504 632227
213 637833 450573
214 142992 331204
215 595789 363168
216 720695 985018
217 129464 105468
218 550143 387824
219 722090 673990
220 174720 349609
221 765770 1022715
222 169880 683773
223 117021 612398
224 854265 88986
225 730037 385642
226 710715 400120
227 732299 1023554
228 534546 419807
229 135995 320440
230 580178 448324
231 680303 685118
232 198178 671309
233 193526 338909
234 203579 355585
235 779947 970650
236 125418 336800
237 655601 383233
238 703193 363962
239 818735 79157
240 823291 107703
241 152970 302376
242 666584 381742
243 238342 383000
244 234685 261345
245 708741 392236
246 858966 63529
247 815329 69238
248 834278 93426
249 183756 282377
250 889390 40049
251 860840 48355
252 133228 -15758
253 185269 326796
254 888262 72527
255 849375 131091
256 220388 353830
257 168732 23651
258 600984 463377
259 843041 42821
260 696017 371363
261 663597 623976
262 148659 637143
263 854378 35719
264 537178 406335
265 944377 110841
266 751238 980165
267 156997 357433
268 173871 327551
269 240767 362594
270 762255 923593
271 596097 375881
272 834422 39932
273 780522 1050649
274 812543 17411
275 154107 293184
276 210319 308728
277 178182 694914
278 635882 443159
279 147941 357834
280 765923 1032082
281 633007 651211
282 160924 319287
283 650691 385806
284 176775 363323
285 710736 479373
286 825594 149228
287 563891 392616
288 166013 285389
289 825656 1003611
290 677771 406001
291 568259 391655
292 800086 79447
293 129002 365720
294 167916 680900
295 139529 662106
296 699085 630545
297 792847 70124
298 204623 303380
299 870606 136514
300 897303 108690
301 180453 635414
302 119181 -4046
303 829580 996429
304 652293 424887
305 743374 1016255
306 657496 671047
307 774948 70750
308 849890 43057
309 187694 311377
310 737966 1083343
311 142399 -36606
312 849182 -6155
313 167700 702790
314 816804 1000925
315 874218 114029
316 182147 310517
317 678354 663254
318 271820 355576
319 80205 20618
320 864806 74851
321 703376 409076
322 793777 971121
323 597926 452296
324 97211 34846
325 784374 922879
326 648010 659895
327 196774 623021
328 190894 358682
329 200524 397777
330 796861 954733
331 130372 9270
332 670228 412356
333 137318 321441
334 773460 963355
335 183532 358898
336 195737 362252
337 599343 414560
338 144895 665134
339 604822 410772
340 683065 387560
341 852343 91721
342 893633 73068
343 194164 298326
344 849521 121859
345 209791 359860
346 792692 1018190
347 616201 422999
348 224520 708707
349 668468 443242
350 610206 422676
351 125942 662519
352 901409 154956
353 207371 357706
354 673692 408867
355 211559 284521
356 758990 1001597
357 563924 414338
358 660464 363775
359 161559 367293
360 100541 45348
361 135602 24237
362 127527 13627
363 703974 700236
364 182328 660430
365 613426 485308
366 652556 377819
367 763303 988525
368 579572 432665
369 861396 85985
370 575887 502326
371 149606 -6600
372 927237 110922
373 149864 661196
374 163028 339062
375 844630 95239
376 133674 320863
377 180077 693093
378 632048 366162
379 135120 692912
380 630588 375132
381 160258 635316
382 858840 88213
383 893361 58711
384 681953 657033
385 211628 373764
386 130524 633622
387 715160 1000573
388 86111 25248
389 161171 684595
390 887451 74885
391 114710 355778
392 875059 123886
393 819395 106241
394 581108 379578
395 763818 970635
396 239307 362758
397 833324 -1446
398 576248 399682
399 678171 358357
400 873139 57367
401 718163 631694
402 118076 640481
403 881320 88498
404 814268 74963
405 875823 84310
406 152101 652163
407 678673 419180
408 776055 1023430
409 171412 380727
410 205118 315234
411 159236 378534
412 650082 432225
413 828401 74487
414 168506 370944
415 874280 131996
416 653051 401243
417 621627 660514
418 197242 292782
419 704816 625541
420 899109 36268
421 741764 1058896
422 82849 5655
423 180442 338637
424 564641 428670
425 253591 354892
426 94490 56325
427 177519 303395
428 671550 624573
429 612940 416717
430 779391 130805
431 710421 402762
432 183379 50612
433 852982 71153
434 203595 290747
435 567064 405048
436 74380 14508
437 665199 679943
438 127860 51883
439 181661 369377
440 588144 473510
441 214261 660981
442 637665 361531
443 733228 1035259
444 116702 674503
445 194101 290350
446 855060 93746
447 176788 7367
448 731073 946061
449 128366 618921
450 135990 320241
451 577412 421271
452 621465 382428
453 172348 677928
454 654637 657234
455 631646 450040
456 165863 685639
457 578284 402726
458 806388 29845
459 157620 376670
460 813445 91188
461 42691 -20289
462 172339 -16446
463 199190 328611
464 156652 638265
465 700881 680752
466 197748 347786
467 618562 446920
468 702546 650490
469 643831 334176
470 613209 408483
471 190098 327973
472 117660 97358
473 156012 697718
474 891023 105634
475 126862 -27525
476 873106 122621
477 94748 681500
478 692051 365587
479 834219 72297
480 720341 411756
481 178281 355977
482 231952 343873
483 863099 140663
484 199725 320427
485 890949 72741
486 698988 377986
487 865011 88969
488 141787 644748
489 161118 370952
490 736481 952634
491 171636 672857
492 232164 317533
493 667649 588048
494 191204 377206
495 158182 694635
496 133869 643382
497 247538 337359
498 171752 649503
499 818790 105371
500 224645 408650
501 726408 990399
502 847761 89549
503 694854 698457
504 645931 417750
505 650627 678701
506 176516 336879
507 666334 437392
508 750332 1022035
509 779902 993520
510 835258 83620
511 126013 658200
512 655728 644328
513 602197 353537
514 138649 32929
515 99673 31489
516 543369 427321
517 643519 681310
518 715835 410289
519 131747 42915
520 853238 58158
521 173509 331309
522 674100 387358
523 175746 332741
524 579717 374481
525 666097 635722
526 796099 998513
527 662965 707759
528 693587 402912
529 564827 427254
530 710870 426584
531 815902 72903
532 213842 363220
533 599047 364174
534 809103 941604
535 122615 674114
536 566667 429017
537 861115 71491
538 166637 623143
539 655325 731293
540 172013 663115
541 885454 123575
542 210722 374339
543 151432 429893
544 737667 970049
545 170550 321949
546 547331 416675
547 654572 679693
548 693423 399400
549 168254 337492
550 850445 50637
551 682754 367850
552 178488 319607
553 556347 438373
554 189018 308349
555 741211 1004766
556 206994 341041
557 130686 11624
558 178855 618768
559 152352 659613
560 567078 421611
561 856488 83303
562 700738 358026
563 216964 319835
564 888976 64326
565 138845 11472
566 126630 690584
567 695701 372577
568 105269 635571
569 820961 92065
570 870376 90931
571 54252 674098
572 586071 415302
573 815064 1022618
574 761018 1038075
575 869964 81270
576 905893 84020
577 148513 32879
578 223254 343072
579 834166 78813
580 546688 381442
581 868575 22190
582 182090 311426
583 712252 1013445
584 759682 1000111
585 132311 362616
586 844233 39315
587 802662 111337
588 778487 96063
589 653813 361631
590 166533 629326
591 688899 679893
592 789640 1008326
593 265225 401799
594 171049 364680
595 840887 68946
596 182100 323555
597 834207 973896
598 727466 415064
599 904224 68096
600 156897 774
601 218267 642682
602 898729 97791
603 687998 640198
604 151215 342531
605 868413 88501
606 603042 488510
607 672927 613362
608 172692 301548
609 661443 706074
610 206360 335867
611 99904 -26177
612 126607 16265
613 817882 123602
614 159720 372613
615 559598 435066
616 709415 667106
617 706300 382147
618 774100 88292
619 184872 659937
620 651851 399967
621 150526 646862
622 174104 686337
623 854817 103509
624 169743 345351
625 888739 81807
626 717580 407456
627 858305 116372
628 754400 971344
629 865697 137740
630 683505 701098
631 84750 68643
632 577626 407782
633 132935 44865
634 884027 82161
635 737418 1030020
636 180213 324323
637 599901 350414
638 810610 137547
639 712714 984613
640 633652 683781
641 569515 416052
642 274263 390667
643 195970 617093
644 560713 395230
645 150482 337847
646 139124 34122
647 154556 -36773
648 684525 637881
649 794982 118646
650 635810 668308
651 790494 89458
652 637657 450008
653 684926 652521
654 158305 331845
655 758190 997702
656 837690 49524
657 568779 408043
658 846534 66201
659 268070 361161
660 227089 345266
661 661942 716597
662 782704 997921
663 703320 652409
664 190648 344533
665 148587 67917
666 159215 22372
667 588475 432919
668 853763 114608
669 829566 89393
670 787463 1007587
671 702570 355298
672 146649 659025
673 100972 12901
674 566102 459362
675 746701 1047706
676 201239 337398
677 888948 139348
678 171688 378637
679 775283 352810
680 923666 112753
681 830281 68949
682 862798 127011
683 188648 327982
684 220570 355196
685 133213 655966
686 718505 401157
687 625005 393069
688 707690 422125
689 141476 655454
690 740961 384281
691 879725 98030
692 742967 970319
693 193911 386032
694 699311 642083
695 673587 376274
696 919868 104485
697 160013 671898
698 608641 385602
699 121513 620020
700 205714 603562
701 133580 95634
702 890834 106209
703 832869 61073
704 172901 415838
705 765673 978534
706 163014 243
707 140670 43218
708 107650 2860
709 610656 401254
710 858000 79859
711 102292 16795
712 736760 977327
713 665625 397435
714 179145 659723
715 170467 649096
716 158314 706261
717 231303 346474
718 688410 451075
719 787047 988203
720 695164 419767
721 200438 322664
722 179446 656317
723 595323 405695
724 924947 98263
725 900506 37165
726 857215 120703
727 800056 46074
728 715062 647689
729 646652 356720
730 186772 617617
731 713926 309955
732 769695 48443
733 172567 41014
734 497106 357591
735 687617 665639
736 581917 410579
737 135837 392325
738 683160 411436
739 664666 637882
740 629468 630275
741 805563 980319
742 156774 383539
743 898678 63098
744 214684 381071
745 688230 416224
746 162943 688829
747 686069 391291
748 606663 425332
749 195917 353963
750 907917 72266
751 149070 671039
752 172291 349597
753 631672 726036
754 191834 307458
755 868777 70761
756 599714 404637
757 807497 89426
758 679083 690934
759 208739 345574
760 172564 372114
761 849376 113618
762 592059 366521
763 148548 401446
764 185127 631279
765 618401 712892
766 162688 620698
767 144013 30240
768 90793 139775
769 671920 359818
770 901515 83856
771 145740 338341
772 620212 378535
773 188229 314675
774 160371 381321
775 694298 672479
776 855654 61124
777 875358 6899
778 145780 14879
779 646130 661355
780 593813 405366
781 609806 390565
782 667559 644680
783 748179 1035533
784 827663 85815
785 522094 475181
786 191701 297549
787 870009 32309
788 618743 407075
789 826724 71992
790 784552 1023750
791 661318 671819
792 177820 319072
793 111203 690687
794 819520 103336
795 678403 363474
796 759820 977744
797 192311 260002
798 132406 98599
799 713036 438334
800 222994 330066
801 789093 1019513
802 573474 407725
803 171137 335440
804 740271 972773
805 172937 322243
806 854741 133850
807 813221 115299
808 655439 443048
809 690392 368044
810 697084 659708
811 208703 269839
812 189942 338339
813 145554 63400
814 724878 365493
815 724421 976428
816 202826 324667
817 613844 409154
818 673673 720456
819 713160 645137
820 818042 120403
821 757477 998069
822 838434 80025
823 909912 112339
824 845623 75420
825 92470 51294
826 560243 372794
827 713964 389514
828 787265 984775
829 198147 361400
830 639902 671775
831 525207 485935
832 140455 25984
833 637358 697830
834 890398 98634
835 691580 646173
836 700556 640836
837 680799 436469
838 820737 89504
839 170254 259751
840 128188 46670
841 89164 7462
842 183445 86667
843 180130 299903
844 635585 396822
845 217144 372771
846 710279 345571
847 626751 456573
848 572979 476535
849 741434 1011559
850 636551 760491
851 889186 60130
852 164043 311572
853 83095 44753
854 212280 337724
855 198175 384235
856 113792 9905
857 701349 382076
858 716405 683517
859 134564 666601
860 125391 4248
861 837986 151195
862 133380 21259
863 852594 37054
864 114609 -26078
865 152449 626360
866 624999 399281
867 617354 388918
868 162229 683713
869 125109 5298
870 641519 378371
871 878427 136019
872 623888 435808
873 586500 405277
874 125991 645575
875 709983 412477
876 241308 323348
877 130994 326533
878 675059 661646
879 546553 398855
880 138395 359993
881 210785 382149
882 177093 304822
883 696034 378514
884 840130 35975
885 175123 311958
886 116454 338572
887 120052 601590
888 161708 637829
889 636729 703620
890 657050 663952
891 134198 390907
892 614804 397754
893 205179 375613
894 770482 1029988
895 632874 386929
896 106527 58255
897 694697 390120
898 140961 -7847
899 201009 311287
900 755381 1017541
901 659582 661593
902 863249 85105
903 170404 688995
904 871611 70942
905 658972 682639
906 550881 418063
907 834869 90693
908 568784 424742
909 173303 339435
910 895109 101071
911 656857 464256
912 114844 45982
913 522986 458688
914 822928 120666
915 187226 642742
916 147821 366136
917 692609 670010
918 854560 98635
919 149694 362673
920 866745 88315
921 97600 666331
922 688521 682251
923 863823 77834
924 900671 102985
925 153215 618094
926 751664 1052280
927 164669 314526
928 799158 985312
929 699739 364624
930 204061 337148
931 678685 670468
932 172325 660971
933 123760 376101
934 818702 96206
935 667377 394889
936 817541 50990
937 161429 325152
938 182748 317098
939 147285 609310
940 777503 997458
941 135262 693604
942 626831 389066
943 853932 53757
944 180868 341673
945 896580 118545
946 179513 34328
947 835964 110327
948 209339 631868
949 711655 342641
950 97431 21716
951 695966 421257
952 829289 113882
953 905388 52201
954 677881 658449
955 675850 670158
956 569555 470843
957 878477 112610
958 100392 -32426
959 169257 317027
960 772742 58233
961 151969 26345
962 800805 1002209
963 686252 666684
964 683479 736894
965 136075 25298
966 575908 429633
967 756979 1029350
968 764081 377929
969 183899 343641
970 772093 1013137
971 122564 11019
972 781776 1055445
973 614358 501594
974 669089 399040
975 110136 24164
976 688055 376189
977 195954 316933
978 200376 631884
979 558157 377094
980 820825 43985
981 848960 70995
982 129578 -18540
983 197456 653659
984 735023 1038726
985 196553 431449
986 220992 370280
987 724227 398197
988 184544 260188
989 848934 55603
990 179606 323693
991 139799 370803
992 145570 333222
993 132609 653514
994 219876 347269
995 744753 992795
996 728926 357826
997 168679 318683
998 752043 983069
999 840610 100297
1000 146700 302207
