NAME : portcgen-3162-31623
COMMENT : portcgen N=3162, seed=31623
TYPE : TSP
DIMENSION : 3162
EDGE_WEIGHT_TYPE : EUC_2D
NODE_COORD_SECTION
1 220580 482029
2 739874 317225
3 649355 212230
4 592762 216378
5 766427 65188
6 490108 310146
7 62205 841742
8 963048 428906
9 75254 256792
10 911508 99594
11 198000 512964
12 633954 825700
13 439799 966835
14 112865 175835
15 435615 439135
16 647540 843666
17 663590 292909
18 739920 334670
19 569687 835071
20 357676 817355
21 943372 68709
22 885571 108692
23 794474 96534
24 143965 156641
25 133246 108608
26 891735 106527
27 978238 420226
28 235552 460911
29 667644 831882
30 404302 435799
31 967157 425267
32 64758 886591
33 407310 599819
34 431160 479010
35 463531 449818
36 79201 863647
37 755932 336188
38 426855 477151
39 524383 314822
40 226610 462613
41 36528 289225
42 899262 138770
43 610426 200560
44 64704 868470
45 1008461 406061
46 351603 822703
47 229408 932335
48 949180 392591
49 146182 162641
50 568763 789130
51 177035 483937
52 96664 177677
53 221559 898143
54 727418 116868
55 663834 842464
56 747373 113814
57 991986 44466
58 246860 496005
59 448514 453591
60 367555 998774
61 194075 498627
62 604604 922048
63 388804 445393
64 1013761 405909
65 47379 143874
66 103035 198747
67 634299 842663
68 217935 485580
69 491131 311810
70 987766 40899
71 787956 934770
72 416484 589973
73 83637 153198
74 394754 553168
75 401273 534527
76 670355 305640
77 75080 140307
78 379396 1016740
79 511515 794253
80 499371 106413
81 629837 841883
82 767719 116638
83 65022 266322
84 737498 318179
85 612972 896393
86 246261 874522
87 339163 960643
88 187934 507361
89 338869 988930
90 428494 464104
91 501303 299895
92 412459 557579
93 149481 166835
94 106834 895962
95 576281 946456
96 250388 833164
97 106963 157869
98 984173 449083
99 538164 117013
100 138027 128098
101 59520 257833
102 465016 970488
103 669805 841819
104 980869 46585
105 907198 119442
106 497295 310065
107 804998 931140
108 244813 462497
109 78697 145645
110 335062 993057
111 592120 933013
112 481067 315757
113 591715 969147
114 445510 410068
115 538739 129384
116 972503 444790
117 587793 945963
118 86088 169577
119 367588 984759
120 349863 1001642
121 462566 458866
122 749050 907664
123 63896 233361
124 357760 -14882
125 401574 562391
126 526999 151933
127 753459 127129
128 762303 142698
129 76856 154217
130 680513 829203
131 816527 93412
132 338478 997667
133 629514 942386
134 597763 813559
135 909377 126365
136 175370 146282
137 637036 294796
138 430644 442918
139 773231 343394
140 743860 299942
141 411929 592379
142 111209 220146
143 455323 410253
144 345403 -1244
145 652593 216961
146 730876 324663
147 73800 165087
148 766882 336142
149 398719 598739
150 812282 311011
151 373662 586740
152 369418 1016081
153 443400 428008
154 46872 279974
155 911989 154528
156 896641 122928
157 806608 75710
158 236729 887311
159 638338 315984
160 753317 314768
161 81571 156941
162 352300 1012342
163 457966 1004765
164 624014 935206
165 594889 943610
166 984888 414469
167 966633 422290
168 494438 442781
169 549284 115494
170 814352 39174
171 613019 176316
172 78654 157746
173 650807 855815
174 604259 890942
175 785038 138484
176 483138 323714
177 442376 456401
178 594900 933042
179 738290 118028
180 750203 897852
181 740334 916404
182 715707 117775
183 500453 311583
184 735692 916923
185 74479 865393
186 580268 995761
187 631706 921061
188 350915 1010802
189 47020 193532
190 959055 412811
191 234978 498266
192 552362 117118
193 259725 507656
194 99908 210773
195 767955 133865
196 511770 290752
197 260489 885627
198 473977 989801
199 69939 140884
200 439116 482722
201 553193 835673
202 497772 287926
203 74261 887047
204 523066 766336
205 86877 205718
206 984884 28657
207 447961 405734
208 661299 281841
209 355024 1003762
210 562108 799296
211 460406 983523
212 503650 325584
213 360546 999282
214 983027 5186
215 557087 806500
216 326540 852027
217 76651 878308
218 341491 978045
219 777170 170286
220 726399 149478
221 75052 177677
222 610658 915381
223 433695 951993
224 160379 128558
225 202198 474478
226 793142 116013
227 354996 1007835
228 429989 443527
229 254324 864338
230 187414 468209
231 629928 301631
232 758366 120986
233 500620 110028
234 668454 229895
235 80669 236681
236 800398 52615
237 267293 876953
238 607694 922429
239 895430 136704
240 513680 308606
241 525305 116762
242 439502 976506
243 42139 249724
244 874761 120446
245 180372 489875
246 240334 905561
247 87615 150939
248 729892 134635
249 362728 999297
250 50921 237325
251 980413 9148
252 594579 175239
253 606972 207828
254 538088 839323
255 910315 128225
256 971669 390321
257 162720 134234
258 452090 450521
259 91617 160531
260 1002878 44852
261 252780 867097
262 208562 478055
263 484531 980884
264 219421 505015
265 545390 811390
266 757778 903210
267 104187 176622
268 759698 337882
269 902388 131048
270 421229 468004
271 465876 309236
272 636173 825000
273 369031 1011520
274 341575 958845
275 593040 946206
276 789029 53909
277 627981 177500
278 345411 28424
279 446142 441879
280 978879 38620
281 633582 907793
282 90307 194271
283 412579 564600
284 360145 991228
285 764197 116040
286 100232 223342
287 329556 973697
288 497762 320761
289 1024732 74359
290 486612 996844
291 885053 133374
292 76297 132702
293 744010 123163
294 891835 136325
295 494211 160953
296 645806 835542
297 540728 801319
298 128791 161572
299 1020812 23662
300 762282 324422
301 568192 945774
302 599973 206152
303 245072 869441
304 695814 348683
305 799180 80145
306 256746 447305
307 351005 829476
308 397080 817290
309 777901 907187
310 357393 973020
311 612913 917650
312 365299 808390
313 617127 943237
314 435548 983231
315 498830 149967
316 374024 993956
317 596615 848381
318 757484 129465
319 720623 110218
320 348132 825236
321 352636 826375
322 727667 928720
323 748937 118837
324 983885 446477
325 129795 137995
326 341491 852257
327 391140 834702
328 202038 457740
329 170725 480972
330 964480 32018
331 556841 800377
332 538966 790480
333 430578 567877
334 418490 580412
335 652288 318452
336 264818 925166
337 761637 153924
338 67420 891254
339 258027 870253
340 237068 455750
341 605497 224787
342 70301 262018
343 789413 72548
344 189185 485411
345 644323 861441
346 424960 447779
347 497192 307982
348 782278 78291
349 561001 110067
350 31200 271252
351 548068 955612
352 1003466 44172
353 372896 973850
354 472279 334944
355 131911 168570
356 455572 446011
357 679034 321348
358 637898 186599
359 437673 479785
360 376329 1007872
361 106268 900491
362 391935 810318
363 486043 975289
364 441175 495236
365 880946 140749
366 471802 322302
367 278047 457348
368 429001 574092
369 170534 126998
370 967045 438649
371 599447 926313
372 978472 34197
373 737393 339168
374 807696 84325
375 602153 917315
376 732611 924652
377 632717 202538
378 985614 56415
379 343074 968716
380 475967 978698
381 186365 474390
382 635213 930810
383 93023 201633
384 68034 891333
385 31448 241772
386 338264 26102
387 642444 190457
388 500242 990745
389 794315 85356
390 536774 112948
391 754296 917526
392 107931 189628
393 900925 147419
394 22659 218324
395 259079 911447
396 645464 254542
397 752220 910801
398 640105 208535
399 617379 182235
400 137696 160319
401 622912 218896
402 772169 910894
403 81826 158169
404 626029 932290
405 81090 860206
406 180472 464990
407 659237 840570
408 148880 165395
409 360800 813348
410 564753 147334
411 379596 805258
412 565151 819738
413 798040 138445
414 623184 199134
415 400634 567836
416 353176 1022096
417 977695 35712
418 562765 116462
419 140408 142561
420 258584 482785
421 597375 965100
422 159366 504720
423 562435 783723
424 766606 79843
425 607494 952183
426 106320 896150
427 223079 491561
428 553193 124947
429 362367 1023735
430 429916 424006
431 418391 468199
432 793906 921231
433 238738 452748
434 980588 440289
435 503092 321029
436 349798 -8789
437 750265 943823
438 338236 959325
439 154402 484872
440 347601 -17957
441 178448 489204
442 988413 432234
443 668266 279784
444 754014 336476
445 493210 294586
446 387695 579418
447 720861 330521
448 884062 121906
449 739276 134055
450 948220 45901
451 798319 111198
452 60528 875975
453 961335 398805
454 126702 140447
455 446828 434107
456 81272 252639
457 494964 107744
458 378127 993051
459 353534 998765
460 596381 953830
461 785604 57608
462 248904 891323
463 237120 879269
464 739844 944968
465 363737 1005638
466 754305 117209
467 263032 892420
468 777500 928286
469 649287 920327
470 670973 832003
471 1007576 411767
472 607563 941811
473 324746 3629
474 246507 476556
475 74467 201123
476 587246 206010
477 64740 879265
478 249878 521535
479 264234 855276
480 379629 1018694
481 48971 879628
482 541677 791285
483 411125 564411
484 807187 100646
485 967800 425388
486 619112 221077
487 468203 984330
488 622011 929166
489 639975 856577
490 810166 64627
491 536455 330396
492 737107 899130
493 404039 593942
494 522040 146287
495 68053 138250
496 773655 120952
497 460754 479359
498 491192 285321
499 1005227 72002
500 538933 826116
501 399671 585171
502 372860 835735
503 101318 175688
504 837547 159091
505 561125 961818
506 898679 131845
507 652837 243908
508 441881 466625
509 975124 444549
510 405605 582255
511 752212 928130
512 221194 478418
513 675009 270087
514 654432 258206
515 560647 794822
516 551793 111361
517 75108 213276
518 124265 154510
519 187643 127633
520 43396 263963
521 989753 52250
522 1000724 34828
523 559223 947656
524 448501 414591
525 620536 208901
526 92597 843242
527 723006 924183
528 774561 83020
529 360498 983993
530 384585 564065
531 372899 1007570
532 616259 977848
533 563147 798439
534 669271 276966
535 352672 800114
536 64840 853509
537 228727 850661
538 722630 107516
539 896772 106577
540 625792 836078
541 363820 1012111
542 96666 190713
543 843288 92311
544 369167 942207
545 631686 188864
546 262596 453428
547 233582 497022
548 726151 939480
549 256816 460768
550 510107 337526
551 101236 204335
552 556015 809149
553 981256 44993
554 79762 190041
555 374960 7951
556 350365 976565
557 54101 140595
558 689353 822668
559 407236 426937
560 505123 310481
561 626794 854389
562 476210 963100
563 266399 892611
564 425676 585161
565 899100 130652
566 434385 431535
567 747655 136964
568 343552 981422
569 568651 963544
570 86726 184487
571 438531 490792
572 370247 15193
573 358401 23087
574 471195 427437
575 331904 15039
576 894307 101168
577 328532 1016515
578 354405 978627
579 967110 416458
580 198602 482315
581 961998 5771
582 995533 51261
583 458523 437764
584 547903 128645
585 559666 967405
586 584554 929969
587 767591 312653
588 560188 808672
589 324089 991789
590 976505 413955
591 238738 517487
592 920932 126651
593 25327 270675
594 113191 209590
595 881462 122782
596 763985 102045
597 661077 839511
598 164001 161837
599 436073 420609
600 810959 85865
601 72787 236444
602 999619 401178
603 110270 154745
604 752847 911532
605 582997 977650
606 458181 449669
607 769625 345796
608 629355 896594
609 550447 778745
610 239721 475860
611 413472 462774
612 456509 454074
613 661988 305328
614 81375 142141
615 205819 496553
616 991440 43560
617 553257 793679
618 879955 146067
619 438507 459152
620 236092 869624
621 635144 863689
622 226439 456119
623 34370 207601
624 267567 868327
625 432910 437519
626 51009 252989
627 452656 980294
628 357737 15179
629 604403 956905
630 583533 955523
631 417237 426004
632 724636 141220
633 475731 323765
634 462340 969021
635 342337 18088
636 801306 55394
637 456526 420869
638 783211 922906
639 138769 156191
640 184211 494998
641 632335 230254
642 495438 318418
643 888944 141473
644 157852 149396
645 553513 137969
646 780518 98915
647 630168 875345
648 653649 294272
649 100587 855094
650 878839 105007
651 450847 431164
652 1020264 23656
653 90188 889563
654 348602 811223
655 471457 465232
656 349629 967587
657 652402 866322
658 745495 338160
659 573260 781439
660 619976 852228
661 335496 832816
662 482871 299940
663 498629 326876
664 418178 465228
665 626733 947693
666 543805 130727
667 579931 903078
668 600959 954054
669 454637 453384
670 194736 504958
671 331639 826047
672 895385 155546
673 682334 290985
674 90635 134937
675 367193 995842
676 344244 976681
677 887242 90223
678 246546 483965
679 376214 830150
680 419126 415541
681 973651 430709
682 862400 174290
683 345850 846575
684 638049 279374
685 643100 283177
686 373334 963518
687 447942 1003454
688 85669 158874
689 613753 938423
690 638510 199212
691 527403 132520
692 114626 195725
693 357480 997365
694 609777 914924
695 127882 131305
696 369716 1004980
697 477007 413409
698 472065 425300
699 469845 280484
700 230550 859725
701 509984 317064
702 462712 966463
703 448738 979596
704 216045 491783
705 950030 23520
706 618449 952753
707 637639 209586
708 365379 1000501
709 24313 857536
710 576758 954786
711 400094 583423
712 446312 469177
713 889590 151572
714 512732 123491
715 629177 851613
716 653804 277191
717 362543 821218
718 525276 313961
719 358806 19058
720 611114 941029
721 804921 84699
722 868418 105263
723 790626 55353
724 471687 1005618
725 587219 235197
726 440048 440455
727 34987 280952
728 586029 961992
729 769209 129786
730 990268 40126
731 337291 -5223
732 882222 96968
733 381943 415314
734 817374 64896
735 78622 836584
736 172526 146532
737 538918 126606
738 101051 207797
739 431711 434598
740 196501 487853
741 354257 969222
742 354378 827995
743 218536 496242
744 439751 980742
745 680852 301331
746 820655 84242
747 481115 956821
748 785590 50734
749 355332 970402
750 194890 493740
751 783194 126422
752 667975 288994
753 413727 578894
754 455613 445319
755 587021 947848
756 327034 878
757 536544 803677
758 533074 797921
759 66619 857715
760 207143 518806
761 186133 484490
762 126876 137342
763 964728 42453
764 366481 973033
765 357667 985786
766 97647 195224
767 531248 130356
768 496349 340051
769 466156 465406
770 639990 908598
771 424137 603395
772 781534 97813
773 610363 170069
774 657365 176647
775 61426 131167
776 471522 301434
777 423929 456017
778 772843 51151
779 225246 450884
780 913258 145933
781 593751 914081
782 382392 566745
783 776752 872531
784 162151 152238
785 981430 434649
786 529106 124734
787 249557 483493
788 758737 132472
789 662905 295513
790 49921 241749
791 499925 966085
792 384976 860430
793 351977 -13264
794 432230 448991
795 975019 83967
796 561294 942441
797 902657 175556
798 760817 110174
799 595248 206742
800 765759 966205
801 392590 -6537
802 489963 314624
803 83938 875082
804 639849 882553
805 983438 426921
806 581083 808355
807 489886 312016
808 260508 887536
809 132635 164988
810 216194 444492
811 630585 228747
812 524145 147290
813 392829 576779
814 442294 427670
815 87796 209791
816 137789 131111
817 366145 1011337
818 574407 785858
819 16485 249578
820 352792 956020
821 213547 507651
822 437636 417842
823 351893 988827
824 649109 819572
825 751295 304806
826 749256 313476
827 716953 338113
828 977228 414340
829 973688 424109
830 784789 932175
831 556848 790106
832 639622 840312
833 188274 473123
834 639797 209940
835 150915 171200
836 395219 559898
837 628829 934357
838 752821 316759
839 905122 92492
840 342049 2631
841 989862 36294
842 873948 143989
843 369699 975974
844 336130 -9300
845 52109 246279
846 438027 482167
847 759076 335922
848 779208 299818
849 258465 501416
850 434370 438043
851 216265 485523
852 528545 120464
853 583364 935467
854 177011 504329
855 728519 326368
856 109413 171401
857 364568 842249
858 378590 800329
859 380030 980906
860 485722 108133
861 794377 63964
862 962527 398930
863 336544 -26656
864 630109 174042
865 353071 836128
866 982985 393142
867 155875 129743
868 347253 17657
869 740671 942125
870 236436 503590
871 759157 328955
872 79615 216577
873 28529 243713
874 89921 214324
875 629480 846711
876 626180 888627
877 386550 564632
878 986745 48530
879 323687 938098
880 426226 562107
881 249736 444266
882 371869 823008
883 632590 214037
884 973413 26610
885 639060 944186
886 269717 484220
887 559352 835162
888 180040 475359
889 794581 74621
890 766259 59262
891 57020 152257
892 253378 827617
893 767911 309988
894 238251 503239
895 971424 410780
896 40649 242676
897 69234 124788
898 490894 333774
899 99310 154317
900 328344 10577
901 352657 1027386
902 605885 966314
903 673209 828191
904 74774 171076
905 531885 111392
906 603104 935200
907 768579 920872
908 798219 90095
909 75438 877289
910 64490 122904
911 528355 116694
912 467748 313988
913 249221 884184
914 973488 50388
915 660282 295351
916 774223 917404
917 274849 870938
918 600632 935293
919 990300 422742
920 646760 169715
921 677066 868359
922 408654 550360
923 39754 129107
924 242311 891264
925 91368 890593
926 669662 854171
927 756028 944238
928 903907 151934
929 80883 166545
930 234480 885281
931 466473 437902
932 758784 935315
933 617891 216506
934 176099 491319
935 190795 469111
936 134075 162561
937 336778 972867
938 49524 220524
939 746820 923045
940 172226 500644
941 67913 277456
942 893412 121652
943 442179 432654
944 410518 594367
945 354174 6064
946 882426 128308
947 256139 889698
948 172406 138664
949 388056 588805
950 775837 64437
951 973321 16459
952 869745 129353
953 757765 935049
954 475158 970887
955 807575 88805
956 324401 -10883
957 635329 860182
958 403150 578671
959 613201 907692
960 980967 400714
961 619625 935478
962 346705 -445
963 461776 441719
964 45694 268638
965 972252 394479
966 234021 488067
967 653705 846537
968 535574 796329
969 755590 962046
970 248775 462345
971 536774 114933
972 631829 189975
973 355271 -1434
974 334657 33723
975 526054 853657
976 979747 27829
977 767517 875777
978 524821 131109
979 452531 437378
980 744904 914005
981 410536 519350
982 666279 308861
983 472550 991362
984 240149 872813
985 528308 804592
986 446296 468120
987 652062 206000
988 487065 352015
989 617081 209379
990 228185 469534
991 657382 822008
992 455556 455216
993 551973 825369
994 403958 784300
995 348911 980437
996 491526 979124
997 345993 977874
998 488883 326045
999 967481 436281
1000 158338 153701
1001 901606 154803
1002 462816 988555
1003 418056 436103
1004 965830 396030
1005 617501 924367
1006 775608 323774
1007 633520 265262
1008 498518 313108
1009 132962 167560
1010 448794 512165
1011 357016 827673
1012 994227 64884
1013 888632 122928
1014 967732 419550
1015 752807 941036
1016 234418 879725
1017 424613 407062
1018 657188 283432
1019 275001 492810
1020 469450 298152
1021 575939 758926
1022 732123 130096
1023 824290 96894
1024 75698 136079
1025 747423 894420
1026 417335 432138
1027 190567 484524
1028 766481 919566
1029 598957 950838
1030 343784 6611
1031 244386 890393
1032 498270 317422
1033 999224 396708
1034 423377 425354
1035 330449 17155
1036 458123 439809
1037 639780 205428
1038 990672 47211
1039 711230 321483
1040 567734 947979
1041 277478 476337
1042 786091 99158
1043 85511 191317
1044 632365 927855
1045 655260 875864
1046 470062 957878
1047 459123 983507
1048 789687 106836
1049 760034 890002
1050 67647 254701
1051 420052 557763
1052 381266 595117
1053 872614 124585
1054 394976 815320
1055 82557 201091
1056 343715 999800
1057 273580 452361
1058 532757 864048
1059 436650 437745
1060 746305 125990
1061 967720 425431
1062 969053 421447
1063 790322 84115
1064 463062 966284
1065 338373 989754
1066 144582 153097
1067 774382 104870
1068 628040 921922
1069 90745 149767
1070 760651 934630
1071 750832 134153
1072 345036 830120
1073 661518 914034
1074 439653 973576
1075 752165 878730
1076 364968 854871
1077 626074 840426
1078 81204 835391
1079 506441 313082
1080 620559 208299
1081 235951 493752
1082 356525 856059
1083 101483 217612
1084 558484 961278
1085 48821 838680
1086 42433 231905
1087 630368 956958
1088 142535 165510
1089 153981 139742
1090 369615 979394
1091 215776 488602
1092 654195 306917
1093 727488 143263
1094 611614 939832
1095 795952 324613
1096 775320 900437
1097 324569 992835
1098 67609 249892
1099 752900 147390
1100 950949 429487
1101 457789 422833
1102 772821 126435
1103 632037 190524
1104 32479 243893
1105 571506 971823
1106 650655 205056
1107 435578 473935
1108 658125 339890
1109 234858 868564
1110 775809 116488
1111 333860 964511
1112 325449 -12979
1113 860010 147675
1114 72107 848601
1115 814825 106877
1116 57656 891564
1117 74656 879816
1118 187230 541861
1119 964228 417722
1120 704983 327970
1121 523285 801469
1122 141716 143868
1123 352665 992555
1124 364002 968198
1125 655125 261741
1126 362477 996588
1127 336556 1021418
1128 416546 594318
1129 232032 453176
1130 526731 120993
1131 107311 242186
1132 744909 943761
1133 530922 147570
1134 427085 576006
1135 752691 361052
1136 392547 560027
1137 578918 926802
1138 464160 939325
1139 615829 929617
1140 146415 124417
1141 734160 333876
1142 73462 260135
1143 746733 155214
1144 868518 154199
1145 218748 854588
1146 629724 869524
1147 245891 874418
1148 74013 120160
1149 640829 820416
1150 564484 123753
1151 104642 175436
1152 350778 978103
1153 988467 424856
1154 211252 885112
1155 558348 792088
1156 556638 798841
1157 41198 215581
1158 67182 849588
1159 449681 431073
1160 183472 489747
1161 755710 125538
1162 349475 959230
1163 765611 326835
1164 475104 975303
1165 887515 125428
1166 798196 100815
1167 245041 439769
1168 344691 -45945
1169 442359 439212
1170 409701 443486
1171 506950 292096
1172 197064 486334
1173 609483 909551
1174 224033 482885
1175 360200 963551
1176 477611 461394
1177 402648 467201
1178 197298 494759
1179 342545 31771
1180 910513 134491
1181 761261 155091
1182 415578 441471
1183 760499 954838
1184 551480 107598
1185 625801 272744
1186 623009 945898
1187 520721 317699
1188 796319 82560
1189 89475 852151
1190 438331 1001196
1191 589148 906241
1192 754475 930756
1193 430520 587872
1194 892258 132815
1195 443401 580741
1196 955263 431138
1197 780941 74509
1198 772387 905427
1199 655137 831004
1200 143871 158308
1201 440389 976786
1202 432870 441182
1203 990261 57139
1204 633709 202127
1205 988924 10328
1206 644174 829118
1207 138483 138019
1208 449334 468424
1209 722400 319826
1210 88511 204949
1211 454131 961577
1212 615981 157595
1213 900126 103105
1214 638577 194159
1215 875719 151500
1216 666629 314439
1217 665933 283668
1218 727425 121249
1219 756051 921899
1220 754541 317825
1221 490773 313262
1222 966745 31985
1223 354900 -6933
1224 353447 997199
1225 350906 -21518
1226 873535 109297
1227 269447 866870
1228 204086 520275
1229 432184 397944
1230 812644 69517
1231 215679 471387
1232 180541 469046
1233 350813 828611
1234 260299 904728
1235 561206 99278
1236 618775 855682
1237 91232 179429
1238 261229 447065
1239 65675 153743
1240 61636 156980
1241 653751 881711
1242 1001414 432469
1243 658505 294624
1244 377810 -21575
1245 960505 57136
1246 149571 143843
1247 874977 124592
1248 907864 160107
1249 613473 926989
1250 753431 317284
1251 407313 572151
1252 786271 95267
1253 867489 89173
1254 52606 877832
1255 575029 761209
1256 633306 181245
1257 215085 493322
1258 348444 20464
1259 338352 974310
1260 459888 465850
1261 94948 223785
1262 335946 986812
1263 94493 860199
1264 714937 907832
1265 259597 488683
1266 760040 350852
1267 183608 479949
1268 422941 427796
1269 116010 136023
1270 786115 937766
1271 342074 -5715
1272 554930 143589
1273 771106 139505
1274 359391 -14553
1275 645521 924860
1276 857854 118721
1277 346581 973656
1278 93860 869040
1279 741316 310802
1280 432575 435236
1281 991140 393871
1282 441888 466570
1283 169783 149021
1284 539562 815565
1285 118873 157182
1286 374459 988918
1287 638388 337174
1288 996638 430327
1289 881222 130713
1290 663086 821840
1291 442955 396391
1292 689772 279445
1293 529331 314574
1294 561637 958976
1295 352953 1017150
1296 580900 910354
1297 88662 196693
1298 350880 37908
1299 477902 317298
1300 432323 455473
1301 772107 100359
1302 541258 296319
1303 362032 960316
1304 193325 517392
1305 895054 130313
1306 88321 181829
1307 778750 900020
1308 470120 326213
1309 610813 925843
1310 135722 161764
1311 664234 827255
1312 132138 156675
1313 739304 353931
1314 980362 32935
1315 117862 147582
1316 761082 899252
1317 331375 964240
1318 758518 117984
1319 441876 452889
1320 549969 825712
1321 476609 970918
1322 742662 147921
1323 970257 389162
1324 736409 138512
1325 950241 67903
1326 596799 921940
1327 724513 115893
1328 534755 828949
1329 571014 956526
1330 671132 279916
1331 362123 994116
1332 451830 467451
1333 996275 401822
1334 647545 212587
1335 406391 581693
1336 367791 809204
1337 669351 285274
1338 237111 482734
1339 358534 972821
1340 66062 148902
1341 830521 106362
1342 409780 421860
1343 672882 308635
1344 396686 875725
1345 795138 70282
1346 328191 964642
1347 683547 850158
1348 518242 98429
1349 64454 898410
1350 338470 826288
1351 67614 250174
1352 405929 602013
1353 735402 933687
1354 446068 426733
1355 372088 997610
1356 732264 305190
1357 418280 547387
1358 360951 956918
1359 174562 475377
1360 180311 488460
1361 67367 170286
1362 94132 225902
1363 967182 409874
1364 778101 72766
1365 967944 406261
1366 934925 119617
1367 394671 848098
1368 737650 143143
1369 615577 919411
1370 991139 414909
1371 76819 875214
1372 581671 780139
1373 74541 877430
1374 747839 103089
1375 978299 442789
1376 763837 334365
1377 353225 987792
1378 66874 863362
1379 639337 902890
1380 585707 962085
1381 61454 152147
1382 950522 422942
1383 446561 956404
1384 380989 578686
1385 512023 132434
1386 418928 413038
1387 793290 95813
1388 852771 126581
1389 648761 287808
1390 30452 234822
1391 513937 294934
1392 776616 121780
1393 390980 584674
1394 477987 325123
1395 744981 146387
1396 61500 143995
1397 996924 423740
1398 68223 131752
1399 424365 439855
1400 467375 472153
1401 495713 305479
1402 449657 468061
1403 885189 126772
1404 443116 445345
1405 605397 911827
1406 171098 489309
1407 538118 783118
1408 919770 121874
1409 114083 203825
1410 405538 556622
1411 86778 149730
1412 225662 466297
1413 748189 322741
1414 76996 163497
1415 593852 962009
1416 740626 320998
1417 776651 104655
1418 57372 877687
1419 97152 188584
1420 747547 322555
1421 765495 322683
1422 437147 424635
1423 607790 935667
1424 984309 356062
1425 254912 853419
1426 74512 140465
1427 64533 154851
1428 225752 897882
1429 500349 92985
1430 424687 439089
1431 485364 327893
1432 778140 924152
1433 571852 946754
1434 393044 435252
1435 619693 195216
1436 588339 951651
1437 989301 43430
1438 602688 913330
1439 340440 9790
1440 431614 479966
1441 432951 468100
1442 112435 204725
1443 227167 935759
1444 682499 279565
1445 425757 394172
1446 969842 39351
1447 483029 943140
1448 28154 178614
1449 387486 850032
1450 580325 948624
1451 624229 939797
1452 103006 236339
1453 396044 585466
1454 669420 318757
1455 742091 102375
1456 513310 325346
1457 108880 176337
1458 770236 325453
1459 384040 416567
1460 808765 67030
1461 623552 937620
1462 657002 844267
1463 545756 844555
1464 634768 904747
1465 425017 460778
1466 631060 171347
1467 477686 999899
1468 250427 465786
1469 775209 131534
1470 128959 133912
1471 433758 442797
1472 863796 133925
1473 487270 973853
1474 588673 979831
1475 324014 1002757
1476 627147 926394
1477 682968 862876
1478 69009 854034
1479 545454 134670
1480 91494 876680
1481 163028 488022
1482 160180 495592
1483 400716 583418
1484 895069 138582
1485 355137 5279
1486 529195 317053
1487 481087 940046
1488 145598 140943
1489 632532 195315
1490 772573 943824
1491 759660 148513
1492 1005861 413656
1493 879944 125582
1494 350706 -10880
1495 117547 185753
1496 733033 331796
1497 701559 310453
1498 661557 318305
1499 884626 154633
1500 553513 796897
1501 763943 899968
1502 252016 458362
1503 459735 940662
1504 376886 1024992
1505 370774 823456
1506 206092 893235
1507 378840 975782
1508 54682 142669
1509 484301 969875
1510 73783 250715
1511 263174 465637
1512 491867 324678
1513 385888 946016
1514 395767 831721
1515 767748 928737
1516 272733 871999
1517 525587 288829
1518 982723 436725
1519 609078 963572
1520 632735 218491
1521 452735 957201
1522 233680 860582
1523 373988 809279
1524 519793 801434
1525 235152 859442
1526 886713 136819
1527 596657 947156
1528 765251 157227
1529 738550 326194
1530 462678 982294
1531 615310 219990
1532 481898 942094
1533 627630 921794
1534 144578 117107
1535 804494 62827
1536 639316 302640
1537 747144 108113
1538 240441 880951
1539 810159 72346
1540 491052 266194
1541 800891 71883
1542 468700 1005838
1543 969919 419745
1544 445784 979910
1545 128511 157156
1546 186897 500202
1547 981710 439161
1548 972731 46373
1549 178296 487877
1550 134293 172537
1551 625075 209626
1552 979879 451107
1553 590366 974518
1554 157062 151541
1555 764119 334120
1556 502531 311364
1557 237142 872560
1558 469866 966894
1559 311947 964684
1560 686740 285366
1561 1002441 426990
1562 539395 785817
1563 227908 862714
1564 408366 588017
1565 264301 866013
1566 719654 309521
1567 588019 968518
1568 244178 888942
1569 739431 89047
1570 68118 250358
1571 332529 1006236
1572 603182 809380
1573 60052 278842
1574 444871 457423
1575 548572 819665
1576 135980 147462
1577 444270 463071
1578 354327 1010784
1579 648377 218150
1580 995132 435192
1581 747328 107147
1582 125422 100385
1583 449151 443820
1584 594312 935208
1585 743188 309950
1586 105786 186915
1587 89929 169806
1588 109101 196342
1589 355479 962198
1590 60984 181316
1591 450146 939990
1592 77727 200733
1593 488045 968461
1594 592066 962884
1595 758038 903175
1596 655530 807806
1597 243141 440348
1598 408023 567977
1599 596573 939869
1600 772427 894539
1601 404871 579458
1602 646833 271889
1603 796403 88087
1604 452121 324655
1605 882399 138564
1606 393193 436660
1607 355841 830205
1608 640478 229390
1609 877894 122311
1610 738937 132091
1611 168983 499910
1612 349780 -9325
1613 766499 139300
1614 939785 422862
1615 420466 562321
1616 790558 902749
1617 92673 208974
1618 53158 262528
1619 585270 819986
1620 768836 127963
1621 87526 146971
1622 400258 987759
1623 773289 901072
1624 782776 902204
1625 955449 60843
1626 216871 472065
1627 621572 924999
1628 760779 863583
1629 614173 840975
1630 992601 403208
1631 656946 326321
1632 790742 922196
1633 349972 -11925
1634 69085 150377
1635 548996 127762
1636 68405 259145
1637 61146 857872
1638 104367 841467
1639 547621 779967
1640 775408 936472
1641 361900 823595
1642 639278 846403
1643 769285 886874
1644 596303 956327
1645 615452 190014
1646 539256 120487
1647 74568 150126
1648 343122 819483
1649 166883 520843
1650 344100 821206
1651 93642 175845
1652 761163 905340
1653 614884 935974
1654 468698 310245
1655 597987 938262
1656 347027 961614
1657 189339 488790
1658 476401 980162
1659 878627 146630
1660 730727 366837
1661 363396 976161
1662 747857 124043
1663 453229 480218
1664 782559 84392
1665 103145 219534
1666 642232 182272
1667 159545 463206
1668 387369 803441
1669 391963 829628
1670 972396 42021
1671 128109 162990
1672 548471 926538
1673 460894 971128
1674 420549 423065
1675 447934 957976
1676 517060 144416
1677 143104 869261
1678 496720 294560
1679 982327 64470
1680 17687 255117
1681 545872 135866
1682 79132 233379
1683 54646 259714
1684 93809 864065
1685 594003 951456
1686 982868 38161
1687 336874 989463
1688 417187 594621
1689 357947 1014109
1690 741457 946645
1691 989932 35000
1692 654232 829415
1693 956092 33763
1694 443441 984789
1695 165855 505202
1696 473797 998986
1697 410876 427870
1698 746560 80884
1699 552513 123964
1700 511331 144321
1701 508811 292609
1702 368018 39113
1703 108437 162030
1704 625263 919913
1705 25354 275268
1706 411157 573941
1707 349369 966026
1708 80086 875514
1709 754087 139708
1710 40463 142021
1711 548734 800681
1712 534006 297244
1713 558318 789732
1714 256178 862289
1715 381614 1040478
1716 900034 129908
1717 444470 961377
1718 252423 486565
1719 610875 916233
1720 235902 876395
1721 617275 204836
1722 707558 315488
1723 358851 1012770
1724 184149 453399
1725 129793 141581
1726 531680 138754
1727 572377 824683
1728 586628 822587
1729 624407 920009
1730 636770 189263
1731 729917 113960
1732 71779 859976
1733 19337 268533
1734 86085 208165
1735 558393 953375
1736 226485 450474
1737 87613 874161
1738 757127 113734
1739 115095 165888
1740 755868 915952
1741 85249 148631
1742 650612 865590
1743 250200 865635
1744 1016916 448954
1745 617090 952359
1746 481690 982533
1747 671936 834699
1748 427923 441249
1749 805621 47959
1750 197650 470535
1751 104425 236326
1752 659184 292111
1753 334724 827890
1754 86323 211669
1755 542586 323118
1756 371694 1002357
1757 341560 979775
1758 459597 990687
1759 173107 473266
1760 779070 324636
1761 1001825 422150
1762 859863 118793
1763 80695 196411
1764 64514 220657
1765 618396 210088
1766 546361 780674
1767 757531 320018
1768 467788 984829
1769 824224 42803
1770 768539 142058
1771 765327 48974
1772 742490 128779
1773 624839 210881
1774 971976 378336
1775 727437 884095
1776 173008 154331
1777 650382 843012
1778 762696 111419
1779 371833 -19306
1780 372875 992099
1781 27200 244121
1782 798253 84091
1783 164985 474425
1784 322095 849482
1785 174518 504574
1786 337310 818881
1787 680822 301708
1788 443348 611021
1789 648536 892510
1790 511783 95259
1791 158473 169844
1792 786449 81065
1793 597723 890924
1794 954458 404157
1795 543732 814014
1796 77137 256065
1797 612867 839262
1798 347384 970777
1799 411832 410985
1800 51750 244234
1801 614365 199489
1802 615388 900735
1803 758397 129006
1804 775627 113664
1805 615075 211051
1806 114140 205919
1807 602483 882946
1808 242310 888055
1809 666472 300635
1810 247779 474640
1811 652154 841260
1812 789496 81024
1813 59357 153492
1814 426846 485431
1815 225575 486280
1816 337640 815589
1817 253039 463441
1818 346143 816925
1819 975641 450750
1820 530257 315675
1821 741991 133675
1822 732994 138082
1823 634856 208323
1824 1002228 413513
1825 142320 163555
1826 531594 145872
1827 759612 99112
1828 996859 21302
1829 890014 149953
1830 812644 74145
1831 737417 354032
1832 476859 989812
1833 151326 130992
1834 368453 973187
1835 866632 143265
1836 230610 885548
1837 802287 93294
1838 126622 156285
1839 621371 216678
1840 984438 60428
1841 248929 462469
1842 539291 810999
1843 948249 434472
1844 450257 452723
1845 992709 441455
1846 736267 140986
1847 633192 838053
1848 576634 917655
1849 608995 946447
1850 737998 127480
1851 777778 931608
1852 264218 475131
1853 658147 308684
1854 352673 -1168
1855 547445 810075
1856 748868 356042
1857 361466 -7255
1858 469798 1018352
1859 45774 235013
1860 61797 848593
1861 665573 873917
1862 730740 131631
1863 152838 139690
1864 587832 986404
1865 876471 142404
1866 585492 908096
1867 262145 472022
1868 573549 941356
1869 489906 294755
1870 986325 47107
1871 764108 86972
1872 527598 128701
1873 670118 284844
1874 722127 336104
1875 179484 491420
1876 966070 65993
1877 463257 455101
1878 151548 454000
1879 895932 151547
1880 468719 996102
1881 527125 130244
1882 779392 338567
1883 555434 828242
1884 374440 814794
1885 438703 963927
1886 573673 950860
1887 85923 866446
1888 563539 788502
1889 886622 136791
1890 156294 151813
1891 658255 200336
1892 611660 208957
1893 608694 969195
1894 251562 475914
1895 52785 247530
1896 35828 224220
1897 409262 575830
1898 37548 280761
1899 74585 253703
1900 352324 823152
1901 736355 351841
1902 675164 843870
1903 108411 194240
1904 759730 920350
1905 77843 214570
1906 754399 306468
1907 326352 957190
1908 801515 915440
1909 410834 459056
1910 399929 426238
1911 746789 925748
1912 542025 114216
1913 993040 21002
1914 561457 824920
1915 382498 977980
1916 268015 493547
1917 641862 273536
1918 346626 819719
1919 104273 213914
1920 86132 157042
1921 355761 975516
1922 357074 1007001
1923 573269 926084
1924 659549 842232
1925 774049 63551
1926 482811 983862
1927 339784 965282
1928 362974 855297
1929 652906 320136
1930 423688 415999
1931 76110 163733
1932 539451 146039
1933 431844 451420
1934 483966 323692
1935 982727 -2848
1936 930290 114739
1937 608273 950774
1938 786193 104101
1939 993700 425250
1940 900793 166083
1941 631164 915911
1942 319356 849010
1943 500667 309865
1944 340613 1022206
1945 346028 774848
1946 188454 463651
1947 74806 151457
1948 433139 440966
1949 338910 970974
1950 486112 316745
1951 546344 796499
1952 966659 429730
1953 363045 842378
1954 662828 303012
1955 441420 614773
1956 585899 977557
1957 752704 907714
1958 85036 176199
1959 551345 153549
1960 87512 197225
1961 525049 90861
1962 662123 841529
1963 573953 814903
1964 346307 1005488
1965 420768 449804
1966 559724 790338
1967 610369 941434
1968 740044 136584
1969 395917 809499
1970 511388 128680
1971 632527 230897
1972 368484 -11709
1973 580125 939058
1974 38857 262336
1975 174689 469105
1976 903363 153021
1977 141904 102948
1978 52794 229843
1979 231144 876175
1980 250938 483742
1981 473197 315544
1982 250103 895093
1983 478109 980370
1984 312603 994468
1985 964899 35922
1986 724027 316368
1987 358415 1033811
1988 673959 288828
1989 667170 278883
1990 449649 959484
1991 528532 125679
1992 670421 299544
1993 479234 975678
1994 434931 430189
1995 507743 329975
1996 350365 953366
1997 675145 841096
1998 580314 924042
1999 373251 834878
2000 425543 602078
2001 468456 953822
2002 338100 843593
2003 657168 317647
2004 382588 999499
2005 102911 207042
2006 338177 985686
2007 1012189 50037
2008 754140 158430
2009 670558 296260
2010 361554 831831
2011 773169 96520
2012 990293 52634
2013 985563 53019
2014 595324 919831
2015 204432 462968
2016 336666 967401
2017 528785 114445
2018 999776 46733
2019 222332 492652
2020 875136 137129
2021 474851 469646
2022 346759 1036412
2023 453018 445287
2024 473662 978909
2025 359030 1014594
2026 403857 413339
2027 542556 159292
2028 535699 126626
2029 879291 155144
2030 244895 437806
2031 50976 166046
2032 682940 297874
2033 187422 479467
2034 616700 947304
2035 336580 -1273
2036 342427 1012899
2037 559669 814289
2038 433740 443352
2039 756142 310554
2040 97396 145989
2041 718380 312727
2042 561334 795507
2043 782345 47896
2044 419898 577516
2045 376219 995196
2046 262699 879105
2047 390729 593490
2048 741962 302461
2049 550875 954951
2050 354874 959687
2051 526872 112443
2052 1002788 36570
2053 214628 460174
2054 260124 860802
2055 330915 956712
2056 456600 975685
2057 598559 948071
2058 149552 144936
2059 881932 175936
2060 565212 956403
2061 346483 18335
2062 680232 316717
2063 184198 487585
2064 748391 339315
2065 331944 19145
2066 544194 134890
2067 419285 576778
2068 639511 844753
2069 908511 119450
2070 381194 981848
2071 447526 440861
2072 370223 982742
2073 278634 455724
2074 574821 938615
2075 959245 451229
2076 757914 323508
2077 371055 -10888
2078 978110 423985
2079 786711 929951
2080 58805 898445
2081 25008 251315
2082 347835 1018956
2083 80821 866802
2084 439057 449542
2085 338517 975217
2086 642255 808809
2087 351509 974111
2088 96747 178879
2089 761244 896577
2090 963058 471837
2091 682350 267624
2092 61789 129279
2093 124135 156148
2094 761026 911521
2095 351273 4437
2096 649936 833102
2097 590043 947132
2098 614431 917416
2099 441699 454358
2100 445865 447194
2101 69103 142117
2102 83095 155499
2103 369534 810519
2104 237976 874999
2105 963170 39453
2106 253752 452763
2107 654675 842111
2108 555962 788860
2109 877390 103785
2110 404960 577672
2111 406408 587012
2112 149387 103070
2113 391475 573154
2114 749187 306304
2115 366741 980825
2116 267036 465149
2117 772597 64868
2118 464490 990520
2119 155027 150115
2120 803256 53468
2121 248551 847359
2122 897814 124109
2123 329640 -20068
2124 328734 964295
2125 752294 910374
2126 269144 466072
2127 74481 169224
2128 364892 5269
2129 251850 494409
2130 60503 147584
2131 92550 221414
2132 87933 867746
2133 586575 946146
2134 441264 458311
2135 333652 833353
2136 679356 302989
2137 528364 797750
2138 631358 278303
2139 855115 120889
2140 378799 30858
2141 588747 921628
2142 360850 823275
2143 567506 790437
2144 358887 -29016
2145 48262 187108
2146 151998 477327
2147 592606 910040
2148 601014 211589
2149 351549 -5275
2150 352960 977829
2151 444242 450096
2152 645464 840680
2153 386665 -1485
2154 552134 134808
2155 579826 813532
2156 185719 478588
2157 98032 188723
2158 611107 937867
2159 455382 441216
2160 67941 882128
2161 124646 211586
2162 617333 935241
2163 590802 959755
2164 364331 845140
2165 137658 127136
2166 764476 125018
2167 496638 299378
2168 434086 547381
2169 242840 475940
2170 644408 828782
2171 64813 140619
2172 778748 56074
2173 979573 24812
2174 523899 105413
2175 559419 157114
2176 367403 994376
2177 572275 939001
2178 122308 165999
2179 178473 478912
2180 90786 229966
2181 752384 891556
2182 421321 411666
2183 131361 143864
2184 143937 134085
2185 739936 123194
2186 485758 295128
2187 987073 401033
2188 742993 903669
2189 406996 413160
2190 473419 977892
2191 779312 328386
2192 416019 590804
2193 618298 949034
2194 526168 840953
2195 140436 116603
2196 631758 206908
2197 478443 308195
2198 444014 492417
2199 121322 225270
2200 158905 512727
2201 377606 819011
2202 460201 476016
2203 66883 216680
2204 49362 139718
2205 100121 205814
2206 654445 811399
2207 94590 199944
2208 587731 918814
2209 121484 143642
2210 952417 421380
2211 762845 895523
2212 583528 934431
2213 556901 940755
2214 870442 149098
2215 160635 491591
2216 586108 944814
2217 73022 129759
2218 750447 137042
2219 263224 897034
2220 448549 436255
2221 737600 123785
2222 130997 141312
2223 472896 963118
2224 257450 490706
2225 726590 330664
2226 452109 967141
2227 632072 210224
2228 826029 91278
2229 617854 205012
2230 780524 100361
2231 638680 833845
2232 884863 136628
2233 730216 146261
2234 485303 322874
2235 369022 6757
2236 460818 456926
2237 181207 491064
2238 203497 491351
2239 330216 816235
2240 363453 816328
2241 1000334 434495
2242 807116 85026
2243 55946 271095
2244 94620 203187
2245 762775 355135
2246 1012327 62145
2247 755097 321509
2248 748987 142882
2249 634265 900581
2250 426701 587755
2251 525776 806731
2252 762538 127196
2253 358238 -20909
2254 884234 132707
2255 72623 245132
2256 996410 420179
2257 778398 92932
2258 773877 936499
2259 370823 969050
2260 511844 307859
2261 640839 837248
2262 544565 154148
2263 360509 806062
2264 533640 122645
2265 611380 893479
2266 431247 427156
2267 380656 811068
2268 775963 50295
2269 244198 498210
2270 428506 438125
2271 46390 243100
2272 613534 928880
2273 114468 117118
2274 361619 804001
2275 460504 302045
2276 563520 936517
2277 85236 173901
2278 350613 7531
2279 161938 166894
2280 589622 794110
2281 324221 990694
2282 467054 970531
2283 80837 123746
2284 573257 818902
2285 742755 310306
2286 391670 561178
2287 633655 192039
2288 173994 513372
2289 900525 153351
2290 867393 103441
2291 444039 998665
2292 70644 132875
2293 851731 91023
2294 433180 468026
2295 628283 909537
2296 806041 896634
2297 436028 455100
2298 466379 968726
2299 547783 798958
2300 36585 241537
2301 761716 122021
2302 258665 475300
2303 141600 132815
2304 408107 408721
2305 597247 946094
2306 762930 125313
2307 465839 975176
2308 372396 1010306
2309 499337 326369
2310 892377 122975
2311 208972 493766
2312 890806 144818
2313 663872 311345
2314 753526 898398
2315 993137 412752
2316 586209 930277
2317 986561 452846
2318 638348 202285
2319 75408 881013
2320 611245 796197
2321 541043 787072
2322 404815 780760
2323 87780 231562
2324 133087 142860
2325 979250 411769
2326 138531 128830
2327 614978 215738
2328 743440 913128
2329 522779 171673
2330 753761 318805
2331 358983 1006362
2332 89034 891461
2333 166108 133896
2334 512164 99715
2335 628620 215418
2336 69539 883871
2337 737323 927370
2338 982995 7281
2339 233636 919973
2340 728411 309925
2341 591784 969954
2342 58416 235713
2343 792116 892353
2344 471269 957786
2345 526421 142838
2346 110024 222249
2347 658002 304188
2348 753786 943321
2349 610691 941374
2350 743774 145604
2351 634529 200912
2352 381822 1008696
2353 661914 259915
2354 775356 885527
2355 615963 916825
2356 454380 570869
2357 424081 568839
2358 819875 72064
2359 639406 855855
2360 781846 924669
2361 183736 496913
2362 93818 222275
2363 996215 426548
2364 94701 874474
2365 346776 945805
2366 159573 521345
2367 232588 471452
2368 105059 189305
2369 904626 148055
2370 93704 871230
2371 576772 894156
2372 93826 147311
2373 393717 560766
2374 565390 794494
2375 364898 951859
2376 889865 149460
2377 785555 77163
2378 95531 208111
2379 124991 147421
2380 519821 335095
2381 780321 925495
2382 63811 157175
2383 559923 837491
2384 354226 1000962
2385 332494 825760
2386 358207 15998
2387 581842 780357
2388 779722 909993
2389 445317 584414
2390 325949 -14296
2391 116585 179281
2392 518210 119435
2393 646162 287853
2394 570588 769375
2395 752242 903296
2396 539890 798857
2397 757066 944914
2398 350387 15840
2399 897531 119381
2400 600373 957109
2401 531164 98945
2402 197854 490973
2403 137753 179097
2404 428214 576943
2405 784547 103546
2406 604088 954954
2407 361814 1002644
2408 378955 807086
2409 275870 870523
2410 487476 286666
2411 182196 484161
2412 225787 496180
2413 428421 442969
2414 662507 285390
2415 646080 203797
2416 401002 562629
2417 261260 471061
2418 494364 974219
2419 282046 927394
2420 989867 440236
2421 424982 444243
2422 638604 938002
2423 188745 520744
2424 971322 425268
2425 456525 961742
2426 583321 935319
2427 607550 924504
2428 349101 -3761
2429 225559 495449
2430 84502 877187
2431 348208 994356
2432 342977 972954
2433 693979 290009
2434 508155 799593
2435 201673 492322
2436 104627 844531
2437 589446 965430
2438 472218 984012
2439 327113 998355
2440 327097 948374
2441 346140 822632
2442 647842 850752
2443 247699 493614
2444 346048 825792
2445 562100 835937
2446 66409 263119
2447 124377 146301
2448 664292 332489
2449 66396 180389
2450 435684 432224
2451 874501 107545
2452 787290 63269
2453 801203 26074
2454 897762 120588
2455 808058 58130
2456 596123 921292
2457 126726 179595
2458 76964 907820
2459 354979 1016469
2460 264719 448803
2461 394350 601261
2462 209020 475953
2463 55566 244042
2464 598744 889121
2465 774240 943916
2466 441099 450156
2467 260713 876333
2468 88992 151309
2469 67254 259226
2470 56321 902729
2471 1005244 82871
2472 351541 12144
2473 752273 116739
2474 357558 967271
2475 80450 179418
2476 421418 480398
2477 611411 935456
2478 621103 209177
2479 759882 905526
2480 477838 951734
2481 253202 494393
2482 550563 808871
2483 408385 588018
2484 101167 887019
2485 435603 419649
2486 486256 315420
2487 625529 916932
2488 261858 875573
2489 614664 835670
2490 82769 259516
2491 527866 128662
2492 720415 343816
2493 781401 108191
2494 245244 461187
2495 629928 915107
2496 776686 88980
2497 624634 240299
2498 404374 454978
2499 757013 906982
2500 49991 161026
2501 257775 458794
2502 350196 8170
2503 630074 199549
2504 121494 209129
2505 198634 894566
2506 69530 207069
2507 629757 842104
2508 267218 881459
2509 272667 850076
2510 92368 149680
2511 57547 206008
2512 654868 304331
2513 749765 321238
2514 572658 946121
2515 272917 881304
2516 593621 904635
2517 368579 976588
2518 294994 886776
2519 34171 846730
2520 428981 444585
2521 526795 130348
2522 349107 1030604
2523 334207 972379
2524 622977 306135
2525 665185 248459
2526 363977 828427
2527 554414 802084
2528 449408 471882
2529 727720 317663
2530 567579 797931
2531 67174 847966
2532 405667 589925
2533 80322 111444
2534 442803 427676
2535 453109 471244
2536 898997 160869
2537 1015719 61727
2538 420200 564035
2539 339059 8711
2540 100790 863561
2541 327870 988408
2542 979939 61487
2543 614421 912495
2544 351884 1009693
2545 142516 153066
2546 99528 202278
2547 79058 161740
2548 462698 973289
2549 757441 75613
2550 546500 755928
2551 126561 224947
2552 270266 483891
2553 570051 964727
2554 174500 142574
2555 454695 483099
2556 226729 469016
2557 391767 544724
2558 757346 332990
2559 472674 980023
2560 248399 485059
2561 542395 797721
2562 963267 424561
2563 620244 916731
2564 245839 463164
2565 431692 571698
2566 501519 1024565
2567 311793 995516
2568 779485 97385
2569 199236 470068
2570 652701 281782
2571 888272 139146
2572 220041 838883
2573 66397 867276
2574 404103 557525
2575 989986 404116
2576 417314 577703
2577 357463 834754
2578 987580 444219
2579 509955 314108
2580 414994 592373
2581 362686 19067
2582 518063 330548
2583 848059 127359
2584 113729 154232
2585 359765 -23552
2586 644632 831439
2587 732743 308403
2588 315606 7529
2589 609122 921057
2590 392890 581249
2591 390523 987014
2592 951489 38719
2593 39967 254078
2594 99002 123461
2595 383127 841838
2596 341553 835304
2597 488438 320096
2598 650503 183095
2599 246553 914707
2600 358110 966886
2601 375388 570878
2602 620638 838760
2603 366277 981200
2604 226861 494700
2605 218126 890075
2606 98794 210060
2607 67075 832890
2608 637441 222319
2609 263110 886874
2610 759816 56597
2611 747497 901743
2612 546436 782363
2613 524783 800691
2614 450817 462495
2615 61173 233259
2616 490697 327538
2617 802387 75275
2618 55738 271032
2619 550931 809506
2620 230873 494783
2621 435055 440253
2622 190973 513718
2623 78522 190658
2624 554715 827420
2625 248241 477516
2626 942236 418050
2627 94823 137432
2628 995378 430651
2629 774148 902026
2630 308854 1005082
2631 896786 132409
2632 735693 295286
2633 73074 169315
2634 371913 974635
2635 197719 511984
2636 89169 159360
2637 51827 279410
2638 637674 263156
2639 767589 899537
2640 437668 439634
2641 1000724 21043
2642 431102 430889
2643 355971 948381
2644 223469 885066
2645 75572 876012
2646 942425 4731
2647 771766 131263
2648 441246 405506
2649 597165 949156
2650 119689 204201
2651 449238 450028
2652 94644 190668
2653 356619 969281
2654 185691 493529
2655 84627 877922
2656 973737 417680
2657 529444 126435
2658 125639 128379
2659 514159 307475
2660 341922 33794
2661 49248 142149
2662 624524 851261
2663 451471 449902
2664 463838 452930
2665 584784 799176
2666 795784 54394
2667 453726 444350
2668 512887 137992
2669 346529 29197
2670 220993 480903
2671 566470 790274
2672 103774 143534
2673 238273 508015
2674 248126 906445
2675 70447 864406
2676 961829 438233
2677 327286 23522
2678 154165 163106
2679 755417 916482
2680 429988 464612
2681 469063 342885
2682 329091 972145
2683 456990 969580
2684 635105 921891
2685 970449 434900
2686 98275 170993
2687 761197 124641
2688 462562 464276
2689 58019 149291
2690 737659 915902
2691 396179 590119
2692 758065 902133
2693 186815 465304
2694 504216 291027
2695 675776 858729
2696 602219 910371
2697 78700 157803
2698 67675 861633
2699 761033 900920
2700 453075 976736
2701 552345 150803
2702 470463 962742
2703 242125 473338
2704 467753 440617
2705 105557 223877
2706 233549 443674
2707 920764 112124
2708 893930 114094
2709 387894 422478
2710 402390 558970
2711 585256 946471
2712 622691 805260
2713 148306 135600
2714 456859 443442
2715 494951 985556
2716 743598 336332
2717 956472 435009
2718 355959 6727
2719 196986 507670
2720 588188 909437
2721 362210 825848
2722 977885 30684
2723 528542 148051
2724 444012 970942
2725 85464 223784
2726 448289 421290
2727 333702 985829
2728 253245 467288
2729 87816 149922
2730 1000631 435554
2731 972402 50755
2732 618906 876539
2733 972783 69120
2734 466830 448972
2735 568500 824470
2736 326572 997790
2737 60404 136955
2738 772165 61602
2739 430933 585920
2740 757155 316069
2741 568799 788576
2742 776455 872979
2743 991303 24999
2744 495857 316377
2745 763762 132201
2746 525377 125651
2747 104543 198544
2748 76722 840791
2749 781569 917228
2750 251264 473976
2751 362073 834729
2752 415788 546919
2753 457168 441189
2754 624326 830755
2755 479052 955225
2756 589280 919332
2757 513656 314336
2758 736958 308954
2759 442107 434036
2760 545136 135016
2761 266776 899158
2762 371972 835480
2763 254390 880055
2764 330831 1012547
2765 499269 319380
2766 473600 301586
2767 663348 921813
2768 634940 910218
2769 566130 132324
2770 479861 995809
2771 984611 40749
2772 662495 257453
2773 562748 968677
2774 528913 131139
2775 125616 170610
2776 242791 469488
2777 768767 78522
2778 801581 75832
2779 785550 70517
2780 370610 980236
2781 885343 116648
2782 540352 109402
2783 477309 433271
2784 536579 314574
2785 632535 179891
2786 376178 16771
2787 743216 110670
2788 784188 100039
2789 86155 176938
2790 82922 149540
2791 331320 -22104
2792 374578 16711
2793 742761 142389
2794 670373 325187
2795 44513 247900
2796 87780 134511
2797 634397 185765
2798 619204 918535
2799 647785 839150
2800 99707 202778
2801 412610 595730
2802 982575 396339
2803 734691 359643
2804 638082 900488
2805 551756 830483
2806 968160 58739
2807 106433 155384
2808 18434 233056
2809 651253 827994
2810 533927 147381
2811 865970 125566
2812 334564 803621
2813 84018 870281
2814 40441 248646
2815 1004922 53497
2816 768085 911233
2817 347614 19054
2818 637323 846110
2819 366687 828639
2820 180348 499924
2821 419858 579670
2822 258280 867804
2823 313757 969583
2824 520482 322810
2825 82205 180723
2826 66417 247214
2827 358943 945627
2828 818826 75773
2829 346659 857564
2830 346904 981251
2831 420267 445394
2832 403891 542158
2833 472400 342842
2834 786242 943326
2835 752014 876722
2836 755616 326825
2837 542110 947288
2838 84730 883263
2839 240087 474552
2840 759458 138371
2841 405427 407425
2842 893245 125269
2843 188856 489895
2844 307947 9417
2845 73246 126102
2846 251432 481688
2847 639545 173535
2848 588763 898954
2849 598757 904208
2850 423649 567565
2851 391504 967280
2852 633052 917901
2853 731679 897282
2854 50834 221900
2855 37075 269305
2856 796712 80139
2857 326292 -1274
2858 415621 439844
2859 375305 811310
2860 359223 993194
2861 76078 871530
2862 165058 155195
2863 485569 987411
2864 775064 77416
2865 755427 293774
2866 451895 996659
2867 527967 796943
2868 634904 336132
2869 744425 919341
2870 859868 149606
2871 225471 909632
2872 64043 247146
2873 518098 99359
2874 778910 82333
2875 646185 222334
2876 131207 177679
2877 576357 916526
2878 988889 43532
2879 83398 269284
2880 438477 434753
2881 254701 466021
2882 91602 219853
2883 254413 859170
2884 532741 132489
2885 70276 881888
2886 734177 309369
2887 617908 907977
2888 457098 394229
2889 224376 499036
2890 532570 131588
2891 112173 220405
2892 494551 340762
2893 569401 920456
2894 411587 543736
2895 55959 133002
2896 369808 998387
2897 150008 159265
2898 466039 337490
2899 648791 296220
2900 997788 48162
2901 644729 288448
2902 811659 82928
2903 600866 929466
2904 545744 132336
2905 46946 878307
2906 242483 473180
2907 564624 933783
2908 526397 106832
2909 773540 78311
2910 478614 980320
2911 696434 856396
2912 391034 1016090
2913 739203 122165
2914 357981 1012710
2915 779143 89947
2916 771836 308335
2917 84210 857132
2918 509947 307251
2919 582966 941377
2920 526567 95248
2921 934129 410855
2922 518052 778064
2923 359289 821451
2924 616850 220609
2925 674133 308994
2926 945988 451033
2927 633152 818897
2928 551922 134527
2929 118795 146248
2930 405113 591966
2931 333653 1018991
2932 620930 900942
2933 793995 91078
2934 599066 294256
2935 878880 132312
2936 618055 196204
2937 424801 573454
2938 613153 222452
2939 811141 101678
2940 330654 -3068
2941 952798 420259
2942 334197 -11651
2943 425165 418701
2944 773050 89338
2945 798157 87532
2946 759568 104954
2947 880368 116900
2948 977491 431500
2949 620485 226544
2950 195474 522467
2951 427716 562622
2952 511016 131186
2953 86970 123539
2954 496753 983196
2955 714824 336157
2956 776090 935168
2957 242878 512709
2958 176949 486017
2959 246764 892666
2960 565236 944532
2961 898054 156849
2962 531946 819161
2963 668237 272688
2964 81827 210567
2965 1006246 436174
2966 972793 4577
2967 605781 930155
2968 627505 943040
2969 258381 469191
2970 512999 320969
2971 761050 880459
2972 899465 96307
2973 609920 920359
2974 181875 500123
2975 614254 941237
2976 419782 424877
2977 595651 934333
2978 651568 322824
2979 363083 10541
2980 541817 142001
2981 98309 129147
2982 328129 -12475
2983 149210 173121
2984 583590 790001
2985 349481 952289
2986 426784 572816
2987 309836 974278
2988 240045 867290
2989 444272 412211
2990 764484 906417
2991 980500 28785
2992 510630 321225
2993 471506 962951
2994 95248 156038
2995 1020195 19813
2996 169988 139715
2997 133572 160950
2998 601997 932351
2999 349870 1012358
3000 323736 948284
3001 645860 214797
3002 154714 178913
3003 459880 1000104
3004 76108 889418
3005 976645 426311
3006 259283 474119
3007 621694 840341
3008 361068 827773
3009 74665 157399
3010 599662 919489
3011 255212 876996
3012 659267 814868
3013 584086 895741
3014 94300 209810
3015 379267 837891
3016 566964 849044
3017 757676 126190
3018 521214 107495
3019 187342 491515
3020 238312 479603
3021 538244 105033
3022 791164 141379
3023 626282 926086
3024 537090 113495
3025 998205 408859
3026 651359 805915
3027 306735 951877
3028 355416 12947
3029 52000 274492
3030 252398 489113
3031 477906 971026
3032 55263 252137
3033 428962 962288
3034 502569 311674
3035 627054 285764
3036 368585 971278
3037 104213 148850
3038 166099 491996
3039 576143 946101
3040 526924 123067
3041 739306 318854
3042 96088 166749
3043 639430 203725
3044 668860 814570
3045 86499 852063
3046 751847 919869
3047 93381 217432
3048 396758 831464
3049 73587 885215
3050 599538 974879
3051 453304 982056
3052 766459 918206
3053 412004 439114
3054 105518 192855
3055 746281 899148
3056 374629 975254
3057 58562 857058
3058 759156 310694
3059 342466 961338
3060 65265 140120
3061 167104 149506
3062 117400 139442
3063 704071 280124
3064 982665 419914
3065 450491 568908
3066 770610 908417
3067 312699 958540
3068 364185 845614
3069 263972 850366
3070 601755 197900
3071 375559 943774
3072 277109 891457
3073 896017 120017
3074 637774 192916
3075 638615 854694
3076 364194 977815
3077 460644 996971
3078 487757 305277
3079 352425 -14549
3080 471733 985620
3081 84798 199677
3082 89329 166846
3083 517791 313846
3084 67692 872591
3085 451370 454820
3086 558809 122562
3087 429527 433048
3088 625193 207298
3089 456989 991420
3090 897832 145076
3091 59397 229922
3092 347919 15389
3093 353340 3805
3094 741554 123666
3095 242964 876807
3096 630262 922883
3097 517056 309245
3098 358834 975652
3099 591883 927836
3100 762381 885664
3101 661412 318779
3102 924422 120141
3103 777576 106379
3104 52840 281750
3105 979108 436445
3106 105341 882400
3107 103204 839974
3108 613127 932110
3109 345789 1004309
3110 102368 194667
3111 544270 810151
3112 666576 306800
3113 458616 300543
3114 559683 802131
3115 967463 404808
3116 788440 145058
3117 198149 494673
3118 244575 477928
3119 604133 949690
3120 509845 114948
3121 615188 198917
3122 113998 169024
3123 863084 109467
3124 516174 126640
3125 204893 487728
3126 983946 25360
3127 314338 947147
3128 357874 962052
3129 984614 416567
3130 468582 966168
3131 422743 413630
3132 100879 154309
3133 367650 793094
3134 611775 930517
3135 152399 132915
3136 87409 196670
3137 741134 305819
3138 46194 228064
3139 602755 211817
3140 327769 978515
3141 982119 419665
3142 602903 234701
3143 69012 844897
3144 654309 214416
3145 364065 608946
3146 528074 139584
3147 778219 939355
3148 508328 795113
3149 180900 489562
3150 242295 860050
3151 397308 837057
3152 580912 954216
3153 964254 45994
3154 528329 98236
3155 631926 841023
3156 86869 145962
3157 634368 199904
3158 902827 148380
3159 629363 229555
3160 358270 6422
3161 320834 1001733
3162 260625 451767
