NAME : portcgen-3162-31622
COMMENT : portcgen N=3162, seed=31622
TYPE : TSP
DIMENSION : 3162
EDGE_WEIGHT_TYPE : EUC_2D
NODE_COORD_SECTION
1 262137 711181
2 920088 456454
3 84613 349398
4 894098 993166
5 606914 356000
6 269107 921399
7 683214 296914
8 893593 26534
9 794523 913263
10 259221 284308
11 685776 570612
12 704542 85901
13 920738 438062
14 984969 576274
15 873186 812674
16 271450 709657
17 682535 257253
18 151006 151445
19 209374 920717
20 933897 304332
21 640023 416305
22 659760 853886
23 16496 199518
24 722339 102887
25 270437 677561
26 686377 266902
27 458418 146386
28 677647 822829
29 309765 585075
30 871457 33189
31 45375 314755
32 150108 122134
33 652548 846900
34 946874 441301
35 693827 1014804
36 952486 517696
37 711517 87087
38 -10738 781402
39 982594 219790
40 877947 822282
41 9681 747061
42 701352 976192
43 101770 265854
44 197299 909600
45 913100 960366
46 301574 560830
47 909707 411936
48 995193 189687
49 229873 314185
50 876626 823640
51 808281 949727
52 26151 786082
53 694544 1013755
54 910297 965098
55 282323 700064
56 680738 100434
57 658922 387190
58 249459 272979
59 963399 207015
60 681721 858708
61 294643 936569
62 147215 152752
63 958378 429599
64 686381 79559
65 42932 185304
66 65939 345799
67 921546 440763
68 439893 189497
69 635963 880062
70 129507 890968
71 217214 667501
72 909126 426551
73 299031 693640
74 70847 355522
75 855562 820236
76 145303 117624
77 673311 877780
78 144050 136806
79 272688 948629
80 623777 403596
81 103027 297760
82 861450 809810
83 208536 956073
84 248343 685285
85 821137 930948
86 693282 965902
87 886346 20183
88 793243 921496
89 688847 309400
90 694457 314908
91 997219 221313
92 385953 138478
93 14206 191766
94 934824 563986
95 388866 121985
96 938981 356931
97 683603 997953
98 390703 183677
99 479979 739842
100 976267 203372
101 20516 769276
102 985463 202333
103 694821 874472
104 123241 890966
105 975711 195263
106 261032 294986
107 249397 311589
108 661840 914646
109 887818 958225
110 915569 288246
111 967774 191926
112 672903 893791
113 427553 138594
114 807212 920214
115 438213 140447
116 423748 156398
117 935973 10312
118 304772 574466
119 82547 283480
120 922919 355773
121 858357 798583
122 927754 317461
123 653949 843224
124 684894 587792
125 665035 901237
126 710718 986342
127 222149 927201
128 190315 940552
129 300933 552955
130 945850 947191
131 956951 575160
132 652916 401175
133 673875 565413
134 920025 976407
135 427983 144952
136 6730 754010
137 91548 345527
138 672608 85722
139 414136 156015
140 703753 120201
141 229471 734954
142 301402 568347
143 271293 937766
144 250878 690259
145 462483 771381
146 696934 583321
147 894900 36893
148 138840 254086
149 921933 47088
150 936216 327591
151 271281 741365
152 56681 334227
153 917211 982284
154 264466 591730
155 682263 860530
156 935476 565155
157 316297 940253
158 272341 718006
159 37425 206609
160 118719 876105
161 921903 425920
162 614799 915794
163 669924 85718
164 932898 6852
165 913420 362527
166 947624 432463
167 135884 163502
168 692282 859661
169 40426 319084
170 921571 429414
171 392011 178814
172 435914 147439
173 824658 918582
174 707359 989663
175 269963 950698
176 713249 295682
177 824826 955159
178 153922 123178
179 982608 315904
180 278968 954224
181 317102 550518
182 927283 974089
183 406054 154697
184 978720 205558
185 693654 624352
186 266610 932981
187 527956 742456
188 607876 398314
189 913997 43106
190 709117 129491
191 802667 923807
192 277624 299558
193 227280 296402
194 677961 1045307
195 689942 306603
196 106611 129082
197 671222 613275
198 951785 166265
199 694536 81797
200 868948 976533
201 914984 985512
202 970667 265825
203 78537 347787
204 937396 416224
205 98992 359661
206 75952 346658
207 904338 978635
208 225452 908161
209 10829 218238
210 673879 582761
211 267733 313928
212 892129 993962
213 212891 935199
214 648071 406394
215 87393 335876
216 107932 890635
217 943822 335537
218 815523 875979
219 13985 777474
220 133572 122351
221 156888 153323
222 95031 318514
223 733422 101388
224 902715 985792
225 878507 24535
226 279366 575640
227 258065 695487
228 -19759 207635
229 917878 32970
230 283769 723870
231 658769 261096
232 474003 760483
233 951101 425863
234 90779 259535
235 229313 940225
236 274819 947881
237 138238 238775
238 156081 165679
239 883678 810423
240 41379 165414
241 113536 915391
242 99595 247602
243 300414 254082
244 837482 823682
245 943261 338627
246 676916 895970
247 716171 286369
248 71365 338518
249 664189 850453
250 709225 990014
251 284608 562507
252 240620 303041
253 991263 236424
254 269644 708170
255 978287 208062
256 315828 698544
257 278166 278879
258 706661 997070
259 706429 871103
260 930107 302540
261 323262 574075
262 899701 963790
263 292678 684345
264 671163 629896
265 809182 961466
266 269236 906382
267 185859 938989
268 143138 151718
269 55344 330139
270 713524 87008
271 17311 208172
272 166493 144565
273 100209 277543
274 124037 896785
275 929216 564327
276 661728 424225
277 660439 907574
278 83149 365780
279 163607 936460
280 465952 146857
281 714234 270470
282 201370 955136
283 321437 560817
284 959366 542819
285 -1209 759070
286 285454 579115
287 721384 583081
288 438017 157198
289 107574 264568
290 449061 164227
291 79012 336243
292 422302 175611
293 2032 196046
294 710827 590290
295 890986 968312
296 674785 266615
297 510709 755128
298 45517 207824
299 -21096 759836
300 250691 721499
301 948734 433604
302 122841 909994
303 167071 157513
304 896769 1016035
305 294743 715529
306 321473 558040
307 943061 402704
308 414203 150499
309 14853 198385
310 109789 898947
311 692974 590750
312 96737 274410
313 689123 979085
314 709287 975937
315 928393 558084
316 367821 158100
317 700702 75167
318 886877 981343
319 270135 550963
320 891536 27077
321 959523 306522
322 73397 349779
323 531220 773130
324 712993 989269
325 107663 345154
326 149820 278994
327 121012 881781
328 258290 929769
329 652766 876779
330 112297 148652
331 891885 956655
332 584051 392099
333 692378 842181
334 88196 890366
335 270644 705483
336 933023 6672
337 338196 579143
338 280308 293414
339 385473 155118
340 654630 872499
341 866975 824157
342 871189 988066
343 384110 171212
344 694342 854874
345 798486 901394
346 122413 253676
347 243743 307208
348 936570 331383
349 274667 944324
350 900045 19820
351 279561 294805
352 835055 837699
353 924932 50323
354 290906 696791
355 300207 693121
356 650968 607223
357 800058 903989
358 256333 702423
359 904114 427088
360 733185 108847
361 294856 705695
362 695656 99320
363 836871 915079
364 162147 151627
365 303454 706138
366 675335 844379
367 858597 949637
368 282328 713877
369 908988 958578
370 672787 861551
371 132445 908637
372 907494 31522
373 178883 157116
374 923160 310785
375 927572 944080
376 615844 422591
377 921752 444926
378 689504 283554
379 125985 277653
380 636832 395573
381 707664 89092
382 872250 957756
383 247669 946375
384 658954 590135
385 926439 417923
386 -23014 777930
387 247103 286743
388 283832 907510
389 269402 935377
390 118231 903013
391 656532 390437
392 866487 971898
393 700371 840268
394 717241 1005354
395 120349 258688
396 668913 589940
397 971726 186264
398 911853 962197
399 637960 418417
400 96772 349993
401 638013 418315
402 651674 901305
403 112941 285750
404 676364 897583
405 103616 332163
406 665501 931593
407 669528 831673
408 138708 892857
409 952311 407095
410 132341 138419
411 908463 963010
412 202848 929557
413 317135 699341
414 609034 445879
415 432985 135623
416 296749 690993
417 195664 963639
418 281552 721703
419 49280 337968
420 78116 341551
421 482805 749298
422 439643 139575
423 941361 423587
424 931919 44198
425 65183 305297
426 893778 835725
427 145279 133639
428 281893 722706
429 690784 964745
430 281471 715094
431 986244 217386
432 631590 369753
433 672065 301630
434 972156 213865
435 982952 212402
436 226958 950487
437 699516 555253
438 107746 233498
439 269501 952409
440 658904 848782
441 700522 979502
442 927889 434730
443 902540 411015
444 943063 567019
445 664834 888421
446 274955 288371
447 298093 684275
448 935484 560369
449 23434 186074
450 -4489 754397
451 322527 551216
452 689871 848640
453 413522 148522
454 681600 290966
455 644210 392432
456 634889 400314
457 1000349 190641
458 1000373 229644
459 382241 173314
460 685302 915184
461 828998 910171
462 684548 105911
463 690770 988532
464 31379 198636
465 281683 705493
466 662790 892621
467 153681 161049
468 951072 376904
469 317540 665988
470 914322 349644
471 686253 840703
472 400383 169333
473 273752 697623
474 823703 927200
475 274160 925451
476 128374 900567
477 113292 236054
478 895827 829988
479 859172 817428
480 913061 24606
481 241087 698476
482 946880 410529
483 929292 328057
484 391240 158197
485 176921 934434
486 724581 970716
487 903758 991573
488 305107 719066
489 511700 736985
490 279557 547608
491 671354 111447
492 259333 681984
493 254602 683436
494 919572 422599
495 846082 912559
496 633223 364082
497 9298 232044
498 408034 167066
499 898195 816414
500 842970 897041
501 899140 830169
502 489391 757389
503 896225 428899
504 940531 315180
505 693085 294580
506 -413 770102
507 794487 929961
508 -38049 752960
509 78573 369575
510 65222 324206
511 707886 67941
512 41706 321284
513 800008 903178
514 99732 916106
515 242632 325530
516 662932 309967
517 190889 960928
518 90328 293939
519 690905 914494
520 206156 902720
521 661775 926698
522 967904 336880
523 692444 276370
524 286158 567190
525 884835 966185
526 370122 156136
527 505269 724426
528 39353 209563
529 961891 207833
530 663731 846420
531 665871 273456
532 675949 267717
533 237947 265814
534 448733 155829
535 527658 745750
536 1018192 189025
537 43240 205703
538 662223 905794
539 989828 175781
540 291287 696676
541 281118 909270
542 277323 562702
543 982496 210497
544 730056 108157
545 677727 850549
546 292761 684578
547 130326 282409
548 204297 923626
549 140959 180185
550 932831 456353
551 885361 976526
552 655702 852875
553 978303 177491
554 668458 901218
555 682197 859704
556 264542 312795
557 84871 347791
558 913047 984358
559 147022 147775
560 490024 799686
561 63287 218651
562 668431 853265
563 151990 909794
564 306794 558751
565 903236 51428
566 879158 810123
567 -11057 749064
568 993763 232556
569 107762 373473
570 274762 716198
571 294250 918585
572 813885 927491
573 666098 302150
574 390556 166589
575 443857 150225
576 125679 244278
577 29240 225915
578 373437 146951
579 914716 431539
580 483191 765969
581 259882 695715
582 955801 218705
583 921135 301493
584 228170 917732
585 955979 334733
586 405599 172317
587 131989 144386
588 699752 72344
589 268019 946728
590 514620 773843
591 653856 426646
592 191167 917226
593 967361 531345
594 703276 1008253
595 916498 408050
596 818747 920327
597 680807 300634
598 473320 748995
599 847448 790357
600 907776 844465
601 676236 265183
602 272130 702712
603 948703 209801
604 278475 698673
605 922617 954982
606 975025 218936
607 921994 987851
608 692189 298729
609 45029 231098
610 251819 720461
611 850957 792654
612 983596 191056
613 246192 897820
614 214784 922919
615 910495 32379
616 434601 150594
617 186577 948890
618 287414 683400
619 958791 212424
620 490346 740548
621 636745 398711
622 256156 721934
623 -80 781268
624 198713 915952
625 877395 815762
626 868130 810924
627 246123 259327
628 104619 271960
629 650506 895658
630 659865 872212
631 136939 251606
632 707475 958588
633 656108 284122
634 374808 136060
635 237816 305123
636 639479 390410
637 811639 904401
638 672482 1021546
639 937126 11632
640 77685 334654
641 152267 918272
642 122688 268081
643 308136 546531
644 678372 856979
645 625293 412727
646 666784 933903
647 104710 338384
648 657072 846795
649 108805 264504
650 11704 764839
651 33507 182740
652 909958 976795
653 899561 46541
654 682388 918401
655 936499 324557
656 116947 240630
657 909562 334647
658 147534 177973
659 492662 750607
660 295586 713403
661 865038 989995
662 77014 375423
663 66508 338509
664 211238 927202
665 697274 576338
666 669146 893260
667 137017 895037
668 967787 562581
669 434614 144911
670 948727 296382
671 375713 146895
672 116620 290149
673 284874 558745
674 461084 139416
675 660043 373277
676 513832 733059
677 873802 953882
678 900358 27460
679 863144 986643
680 133972 291770
681 114730 287306
682 482547 780062
683 436930 141031
684 882269 971347
685 668294 308732
686 652173 904799
687 228100 299090
688 955702 233138
689 34847 175261
690 487426 760365
691 37751 333751
692 987162 226225
693 929402 34057
694 907917 19602
695 125737 891436
696 897455 965070
697 694078 84850
698 866348 796648
699 280867 685952
700 410081 141256
701 863953 14010
702 647736 901450
703 817048 929265
704 -2607 751600
705 689942 572085
706 118920 286698
707 193005 939203
708 270944 937517
709 974824 202152
710 487584 743692
711 251777 928636
712 504738 771404
713 275427 890782
714 318432 546205
715 224714 282639
716 779952 941260
717 695830 609924
718 929285 419977
719 83507 326402
720 59309 367374
721 719190 133933
722 880450 836687
723 129637 267411
724 95837 870508
725 272927 309076
726 896654 27493
727 329345 564494
728 900800 416360
729 934527 994138
730 718419 978736
731 923273 433943
732 645171 396520
733 875351 952992
734 898759 965760
735 885257 811370
736 677236 898499
737 667642 600693
738 679299 278489
739 846518 814057
740 944519 422312
741 653469 887141
742 895552 966089
743 867815 864006
744 309391 570548
745 710880 827146
746 294978 890667
747 122613 904529
748 269756 678916
749 293179 900236
750 374443 165012
751 406214 152804
752 910303 44491
753 214527 907644
754 70903 343579
755 92367 333916
756 609006 403197
757 40528 175204
758 84540 368556
759 874584 973245
760 924618 959199
761 796281 938643
762 915704 572310
763 676393 108000
764 442149 151818
765 721306 82824
766 931414 961677
767 199874 929307
768 647435 895618
769 277965 930119
770 15741 770766
771 945231 551021
772 932295 430843
773 270399 714965
774 285027 687006
775 855280 799633
776 916031 413260
777 177115 931650
778 109798 939632
779 275913 913409
780 870997 825955
781 371039 166810
782 8318 195904
783 691189 83551
784 962549 171252
785 189833 905425
786 -8062 772897
787 242372 334628
788 708401 61628
789 117786 262165
790 671715 101557
791 425151 182300
792 821971 909198
793 886287 992218
794 703619 986406
795 741519 68282
796 698646 836957
797 913934 960745
798 84082 368334
799 242108 919826
800 944834 529351
801 915982 319288
802 693465 854131
803 726449 567402
804 937565 331269
805 913555 953181
806 988916 203084
807 869346 837735
808 141564 870368
809 265324 321398
810 120982 279172
811 293936 697421
812 671170 588926
813 251453 296833
814 683196 966470
815 276353 710321
816 868274 870248
817 87476 354801
818 649289 921727
819 709285 862559
820 209142 936712
821 877340 959110
822 725552 105914
823 905570 328882
824 910527 46504
825 645929 559084
826 850993 813894
827 700765 809760
828 318771 573266
829 257328 682924
830 920500 413153
831 925967 555448
832 926280 11345
833 916010 800678
834 133145 252372
835 151975 148399
836 642532 897295
837 679483 291709
838 286116 907158
839 440079 146626
840 262008 287353
841 312543 562891
842 37959 171463
843 956629 324993
844 638088 367874
845 929317 25141
846 674786 1007444
847 701938 602145
848 149369 254965
849 400352 149432
850 18201 766473
851 439120 154466
852 653935 871710
853 165009 177854
854 707927 122498
855 905244 964191
856 889829 812264
857 896355 339000
858 271575 920969
859 277952 926399
860 294146 933056
861 235313 253254
862 414256 161471
863 297328 667754
864 823401 922833
865 129575 115089
866 705067 591867
867 704060 1010076
868 722233 1012649
869 373060 202621
870 989237 186852
871 713787 106350
872 789224 929525
873 832873 921611
874 80324 349993
875 101598 157757
876 387883 135126
877 698775 906497
878 944170 400568
879 11476 780628
880 888696 26724
881 106518 152278
882 264146 712419
883 619298 390739
884 376944 161922
885 658174 299991
886 898411 417836
887 285056 690221
888 196949 136547
889 682046 1013789
890 960407 216869
891 916112 552922
892 697189 863050
893 22304 266958
894 34462 214336
895 984780 550787
896 876537 803803
897 929121 945417
898 148806 167447
899 890051 4056
900 89836 353586
901 401409 160829
902 287896 945215
903 112046 363515
904 167096 138130
905 904434 295522
906 676021 918891
907 795211 935251
908 901524 976429
909 957500 395419
910 703764 125944
911 397731 143507
912 796004 909644
913 506802 752018
914 921756 317835
915 711479 83352
916 496312 759441
917 376270 156262
918 637692 890554
919 951941 314448
920 649408 421246
921 900225 39598
922 10601 222911
923 924059 553207
924 910828 48239
925 156194 279443
926 800912 924557
927 912057 305422
928 921993 438609
929 661064 269407
930 315314 570907
931 674681 851579
932 113899 927959
933 259510 914528
934 285766 704465
935 712834 263940
936 290661 571824
937 666256 596142
938 918828 535371
939 71135 171762
940 272979 730201
941 929193 382454
942 154314 883813
943 251146 275908
944 273426 533960
945 728118 67655
946 924018 331398
947 108577 920255
948 670636 566867
949 683581 834437
950 653762 853983
951 445732 120575
952 969770 440633
953 80220 322911
954 31519 238516
955 712374 75782
956 271953 317494
957 285450 567961
958 304746 554314
959 665251 584409
960 682635 991632
961 296035 555914
962 780353 917149
963 99683 280947
964 95846 324675
965 148658 168585
966 714745 254785
967 668009 599018
968 137649 248913
969 668072 890876
970 250408 572817
971 202484 922403
972 165567 160980
973 273424 927975
974 811984 956293
975 365889 167456
976 281721 563575
977 929013 529978
978 168463 157542
979 673023 848489
980 101710 256954
981 129039 895170
982 930803 337045
983 890473 983909
984 922717 568614
985 287826 692003
986 26849 220541
987 683633 984676
988 355144 136837
989 689157 1004942
990 794173 914882
991 6080 192469
992 853268 799277
993 690537 595969
994 24118 196796
995 387345 152692
996 930073 336856
997 877235 965109
998 935252 969893
999 870396 817097
1000 954410 351458
1001 847203 831163
1002 396183 130249
1003 718196 1015026
1004 68141 376283
1005 248679 756014
1006 277717 703934
1007 392398 127735
1008 113732 905546
1009 227656 917893
1010 108030 869355
1011 876209 997052
1012 929975 450748
1013 97496 336304
1014 97376 891705
1015 289653 900440
1016 780184 921253
1017 803230 945745
1018 677781 989668
1019 701291 873313
1020 917341 595594
1021 23883 236482
1022 911193 -7337
1023 862347 804682
1024 308132 559227
1025 972328 231876
1026 906888 -36
1027 294418 719605
1028 675261 901182
1029 686129 88521
1030 681399 601332
1031 253423 942419
1032 667368 915459
1033 823650 893758
1034 194272 943347
1035 798685 961398
1036 683605 860418
1037 680418 1014830
1038 651250 379032
1039 676528 858385
1040 652053 923155
1041 122796 186530
1042 669531 911232
1043 261586 930232
1044 891035 964806
1045 962941 550396
1046 943678 333067
1047 239055 945727
1048 662958 616775
1049 916247 972929
1050 272761 950465
1051 152173 917651
1052 283649 700098
1053 668830 873301
1054 262310 317576
1055 942107 408674
1056 916357 441591
1057 916092 410548
1058 878241 814483
1059 147852 131073
1060 -4898 736264
1061 273127 702650
1062 373038 156284
1063 280131 943259
1064 856541 984150
1065 122550 929799
1066 267332 706333
1067 109892 140661
1068 930107 976425
1069 267483 561566
1070 680492 861258
1071 433123 172285
1072 699524 279241
1073 935970 555993
1074 686952 83563
1075 943747 287678
1076 -2250 206390
1077 100813 240938
1078 312284 544240
1079 233040 935200
1080 247148 955928
1081 115692 914957
1082 441708 147355
1083 950196 192219
1084 874881 840740
1085 992535 177922
1086 264434 735136
1087 122055 120949
1088 200623 901642
1089 289999 555032
1090 926864 28329
1091 224299 963027
1092 239561 717479
1093 120222 878317
1094 958144 187395
1095 140675 268277
1096 886996 994574
1097 684527 854312
1098 414111 143494
1099 694297 976098
1100 976426 206310
1101 704941 981053
1102 272485 295835
1103 308150 898037
1104 374973 140863
1105 688785 873592
1106 249564 691620
1107 680409 583333
1108 879933 416717
1109 -35920 755942
1110 972337 207666
1111 305059 571920
1112 51429 379466
1113 883487 33651
1114 86970 336323
1115 269841 931158
1116 714115 1020560
1117 897011 23634
1118 638615 905975
1119 913777 1023809
1120 382720 152060
1121 293139 567222
1122 264316 291040
1123 104638 924587
1124 277543 675373
1125 689959 570799
1126 944883 52623
1127 292728 594059
1128 289637 568515
1129 -20 760960
1130 263265 923095
1131 241579 707829
1132 296584 717851
1133 925795 416555
1134 249970 701793
1135 833054 919398
1136 386293 148513
1137 182105 921564
1138 264805 923923
1139 870425 981031
1140 53756 307780
1141 680151 830497
1142 192878 919595
1143 909561 20354
1144 928353 991653
1145 205794 940493
1146 694745 564131
1147 895231 25286
1148 634612 393300
1149 917447 975098
1150 896522 47478
1151 276311 279057
1152 922875 439715
1153 867908 992435
1154 503142 750621
1155 866680 21921
1156 15475 219365
1157 158072 918299
1158 -953 736148
1159 947211 584186
1160 477953 767103
1161 686029 1005411
1162 665447 895178
1163 71845 349195
1164 837809 832870
1165 929061 418693
1166 709728 854244
1167 413802 137797
1168 200192 130532
1169 381989 146576
1170 715157 606267
1171 1001808 180233
1172 920304 850322
1173 651085 424511
1174 212470 298035
1175 261796 690049
1176 897462 419030
1177 902172 979895
1178 869003 802474
1179 680009 294240
1180 284854 907016
1181 653617 890185
1182 264959 956590
1183 646 802190
1184 314905 547135
1185 928244 296962
1186 701243 396824
1187 711774 862389
1188 258486 927759
1189 25489 205708
1190 951408 443876
1191 706497 857059
1192 169480 168457
1193 389635 138588
1194 124439 282638
1195 920126 311721
1196 491703 780463
1197 701286 986069
1198 263737 313189
1199 229014 896571
1200 656695 393394
1201 691275 577032
1202 913615 969044
1203 324804 551263
1204 510301 781850
1205 962819 198328
1206 503294 782496
1207 901001 40127
1208 284399 915135
1209 398819 151875
1210 844981 808344
1211 665832 896475
1212 256006 579201
1213 850650 973489
1214 36831 193778
1215 934411 307141
1216 270248 558220
1217 152048 147060
1218 660707 847793
1219 359678 136269
1220 660079 268267
1221 794718 910908
1222 278658 292428
1223 850541 812934
1224 895879 980288
1225 298832 910822
1226 888942 -2797
1227 119840 139252
1228 302072 573443
1229 635876 916274
1230 113266 254127
1231 291015 697905
1232 218497 924670
1233 612577 426449
1234 260773 715558
1235 934170 352420
1236 151680 170614
1237 301579 724360
1238 53438 353158
1239 717360 560861
1240 908421 949524
1241 633492 901174
1242 257908 712109
1243 970744 200707
1244 312647 563481
1245 452285 773072
1246 919187 437084
1247 645272 907140
1248 974475 208383
1249 898223 785454
1250 244549 299822
1251 302101 586331
1252 266233 711469
1253 293031 550780
1254 327421 715251
1255 292184 670158
1256 676113 607471
1257 927255 328140
1258 919772 968778
1259 105405 320600
1260 675190 558529
1261 52610 152549
1262 134645 118471
1263 9478 788151
1264 129022 152888
1265 138714 177085
1266 143823 263072
1267 282004 687510
1268 969006 185128
1269 828390 954944
1270 288351 645983
1271 671791 564408
1272 692837 834808
1273 255370 746653
1274 432671 140695
1275 242495 294920
1276 278466 724077
1277 920279 332521
1278 19087 235777
1279 929698 963928
1280 464270 192761
1281 134721 167423
1282 185252 918942
1283 634762 870486
1284 250704 703750
1285 103453 314535
1286 841114 840248
1287 307346 569338
1288 128092 265989
1289 275162 682211
1290 306751 583296
1291 24791 754470
1292 266947 707430
1293 907889 56789
1294 704800 859904
1295 441106 155213
1296 277478 682860
1297 227054 939889
1298 968473 532407
1299 707764 271953
1300 874454 830615
1301 692903 876207
1302 148267 301016
1303 246575 304188
1304 209762 942594
1305 654386 924574
1306 794766 899725
1307 462000 191630
1308 143405 165887
1309 -2905 758734
1310 673299 277208
1311 288743 587007
1312 106888 904898
1313 -53330 724323
1314 924311 4894
1315 107360 369458
1316 947699 416002
1317 703597 824464
1318 6522 179358
1319 902887 987484
1320 387339 155529
1321 486562 748928
1322 658117 271098
1323 423570 142408
1324 674350 907314
1325 957523 410034
1326 124444 272429
1327 915724 318932
1328 972984 556734
1329 881782 961112
1330 242184 278207
1331 688868 992648
1332 978352 175272
1333 90938 351384
1334 130954 921363
1335 147264 905049
1336 914995 304759
1337 12192 769188
1338 859552 970482
1339 295982 570021
1340 692428 566693
1341 700387 606307
1342 686106 100620
1343 921329 425788
1344 251111 717214
1345 626773 398277
1346 265207 332378
1347 708104 981788
1348 701471 593361
1349 495944 755909
1350 313562 573300
1351 302658 548320
1352 775683 958246
1353 131846 873023
1354 -3079 757655
1355 296181 724707
1356 484460 764553
1357 241057 281063
1358 422243 129286
1359 356762 131191
1360 893931 850501
1361 277259 711772
1362 699035 828580
1363 252881 291899
1364 156562 253811
1365 856899 919375
1366 112587 908725
1367 678741 549152
1368 34531 201174
1369 485578 772796
1370 272855 570385
1371 677594 102444
1372 204842 950995
1373 643084 392524
1374 117146 149236
1375 636213 904809
1376 1011627 210919
1377 692423 837315
1378 678538 581757
1379 913154 950101
1380 442779 158305
1381 280822 567727
1382 281042 294540
1383 10665 781313
1384 697250 979008
1385 681640 301263
1386 833982 917927
1387 883380 975766
1388 479153 725859
1389 832101 936014
1390 707005 562851
1391 706938 58805
1392 306637 681223
1393 959792 568622
1394 878366 41058
1395 438951 150950
1396 633392 370678
1397 378588 141961
1398 260545 708190
1399 260536 303850
1400 116361 886865
1401 637216 408325
1402 105509 272286
1403 394015 167670
1404 657187 274057
1405 694527 132315
1406 117655 900101
1407 677590 556922
1408 196857 941616
1409 939356 543389
1410 637868 889909
1411 683898 135806
1412 256278 651225
1413 996923 181701
1414 997504 202484
1415 802136 935847
1416 297074 600728
1417 924371 983288
1418 268095 979692
1419 698364 1030909
1420 664897 886932
1421 723842 98959
1422 154047 257155
1423 248496 928308
1424 872783 788339
1425 926563 329806
1426 649360 931188
1427 516598 772126
1428 621876 396386
1429 853940 806560
1430 696123 1017238
1431 119507 930785
1432 894756 11496
1433 684170 253969
1434 264050 708852
1435 922051 540343
1436 604794 414229
1437 685070 853648
1438 909888 30458
1439 63742 328536
1440 187726 929125
1441 117703 894244
1442 882008 6866
1443 929146 965125
1444 114881 879799
1445 21325 211597
1446 920374 437411
1447 910231 824063
1448 239766 914683
1449 627820 405480
1450 114999 911114
1451 -16446 775782
1452 845376 927909
1453 719145 306134
1454 878570 845282
1455 79904 357939
1456 716719 90720
1457 249344 716230
1458 667651 557440
1459 130299 281407
1460 511920 772135
1461 680626 109262
1462 259411 724727
1463 223643 284744
1464 669049 835479
1465 237176 314693
1466 110658 288209
1467 186548 933051
1468 263443 582491
1469 811792 927789
1470 276896 707890
1471 133049 901716
1472 280807 541552
1473 332763 568174
1474 505578 739134
1475 707654 997173
1476 110598 274327
1477 430635 134295
1478 51308 193210
1479 896353 830552
1480 939589 345508
1481 80687 356695
1482 1000468 213138
1483 875241 804070
1484 651643 917309
1485 943288 350521
1486 237103 295704
1487 129333 255959
1488 938817 532858
1489 699582 987497
1490 946404 538431
1491 707895 850144
1492 845652 827059
1493 19670 729502
1494 670334 908563
1495 654886 885776
1496 894605 34384
1497 622412 406984
1498 249155 297473
1499 681717 281934
1500 285405 694274
1501 965303 204476
1502 842171 984194
1503 681216 590852
1504 279094 707454
1505 678626 593711
1506 708883 87591
1507 45218 358773
1508 86042 326271
1509 678351 593872
1510 961512 552239
1511 200083 910353
1512 894544 978175
1513 382154 178299
1514 844988 840216
1515 381813 152230
1516 703104 587967
1517 907085 307966
1518 717187 103220
1519 915671 40955
1520 664531 297053
1521 69256 341814
1522 433968 134499
1523 395385 136307
1524 21956 772388
1525 49251 199097
1526 685346 866024
1527 894760 958003
1528 32725 212853
1529 918318 405803
1530 512937 768530
1531 94139 362658
1532 213918 917976
1533 874117 821117
1534 490296 787983
1535 196710 927529
1536 810959 919095
1537 285479 719303
1538 879699 952749
1539 292688 562585
1540 269502 708943
1541 837219 942824
1542 928138 338381
1543 474136 743293
1544 665719 897069
1545 986585 214970
1546 438420 167327
1547 692756 999119
1548 509567 745434
1549 674526 1010559
1550 258137 943749
1551 321680 562725
1552 717735 271785
1553 901114 961648
1554 973530 209107
1555 921252 564082
1556 705303 868196
1557 516033 748925
1558 695857 92398
1559 637058 412952
1560 9380 731707
1561 1009962 196330
1562 987104 229599
1563 251674 310570
1564 700705 562536
1565 966560 237311
1566 645649 400141
1567 -15985 739281
1568 127324 894419
1569 288881 717185
1570 6398 737145
1571 911372 952545
1572 96671 276816
1573 253730 722086
1574 655095 929535
1575 906238 946526
1576 969089 174769
1577 948880 533758
1578 675150 867214
1579 987881 198348
1580 120154 933146
1581 882419 994312
1582 184187 914826
1583 85475 345924
1584 696433 989130
1585 268812 332457
1586 5752 177767
1587 185044 910491
1588 945481 530972
1589 128503 282323
1590 642060 869916
1591 247918 697694
1592 926557 325951
1593 282828 905861
1594 484544 752773
1595 33967 181359
1596 158366 135506
1597 650623 588690
1598 152108 149487
1599 307056 559786
1600 912884 962767
1601 291405 558732
1602 151758 260959
1603 823263 925068
1604 217532 950493
1605 957809 235565
1606 445068 106562
1607 163472 113025
1608 967468 550951
1609 458147 127396
1610 274523 697779
1611 661542 389971
1612 635871 870200
1613 497269 758730
1614 312369 520219
1615 972563 234124
1616 714893 82970
1617 266348 936922
1618 964350 563960
1619 -12734 785207
1620 122346 271250
1621 -10265 777587
1622 696360 826432
1623 692354 300864
1624 925529 14209
1625 -6534 759432
1626 939441 979098
1627 212488 931198
1628 89463 327222
1629 934819 404310
1630 136788 136064
1631 28972 214143
1632 270999 708121
1633 877036 945569
1634 635353 453065
1635 688631 1009168
1636 728881 84383
1637 127458 908885
1638 390425 147809
1639 672624 889351
1640 934739 31959
1641 729881 970758
1642 1000787 197575
1643 802318 912875
1644 908865 957356
1645 169811 155339
1646 932741 22045
1647 838285 842398
1648 433464 133779
1649 451169 149060
1650 939477 302984
1651 855125 935659
1652 273966 916217
1653 183345 910204
1654 290792 668921
1655 691078 279311
1656 -961 197934
1657 125674 266353
1658 912947 339789
1659 712269 120519
1660 810167 907145
1661 266794 327816
1662 795948 905977
1663 676608 279271
1664 947365 48447
1665 136396 272020
1666 651810 872762
1667 130167 157990
1668 954304 562039
1669 230183 319623
1670 270424 943145
1671 650096 880578
1672 936266 419885
1673 261317 303728
1674 811176 926197
1675 198597 945184
1676 243841 302685
1677 416458 179284
1678 694742 1009628
1679 888862 32885
1680 871651 811229
1681 111723 321430
1682 702740 102307
1683 971005 202178
1684 671026 897944
1685 120684 155902
1686 926631 414906
1687 665622 595271
1688 472350 738886
1689 434959 157722
1690 695989 1011130
1691 815508 925458
1692 694981 295489
1693 969089 538860
1694 29959 181964
1695 907043 992781
1696 20464 751074
1697 65264 324613
1698 1009128 228453
1699 861167 813618
1700 249321 967208
1701 997672 214176
1702 432606 184535
1703 27162 770484
1704 673721 817424
1705 127697 127111
1706 727246 973026
1707 42047 219272
1708 866318 972113
1709 127869 135664
1710 508425 777017
1711 499018 797586
1712 895943 37595
1713 884617 416814
1714 679531 845504
1715 191083 919830
1716 819446 929583
1717 671371 290920
1718 702164 976640
1719 402983 126430
1720 642392 292163
1721 217794 934614
1722 102843 249606
1723 133645 904320
1724 426370 153159
1725 510165 747727
1726 247841 310786
1727 409583 185473
1728 299426 690442
1729 913337 952896
1730 896273 975302
1731 683548 298497
1732 498013 746576
1733 822692 930167
1734 633333 429500
1735 268400 709199
1736 111293 290675
1737 686110 594713
1738 679670 299336
1739 680883 844480
1740 696449 577949
1741 460402 767756
1742 652398 899436
1743 857553 795501
1744 690513 80055
1745 955391 184306
1746 666447 928965
1747 120120 156117
1748 711264 90708
1749 299019 718430
1750 667726 394502
1751 56128 202907
1752 170752 170554
1753 912570 53704
1754 936670 564864
1755 894283 984224
1756 32959 351395
1757 510874 777806
1758 957652 547927
1759 73672 345500
1760 914004 350920
1761 950410 526253
1762 201172 902096
1763 699694 264268
1764 141126 906405
1765 925969 552787
1766 665765 572471
1767 398969 175528
1768 694892 1015151
1769 638328 898170
1770 684194 99756
1771 22237 227450
1772 875685 857985
1773 910048 984945
1774 429050 141337
1775 63587 346235
1776 882791 980486
1777 120621 872262
1778 130330 157668
1779 952019 316848
1780 227177 289295
1781 798249 915709
1782 285351 554152
1783 977798 191744
1784 667513 597626
1785 -7579 762242
1786 205548 903019
1787 108450 325514
1788 824340 916687
1789 139947 893778
1790 285551 703122
1791 73317 270981
1792 852909 781091
1793 146347 160269
1794 943968 930515
1795 903718 19776
1796 501857 761990
1797 908878 443078
1798 872613 948815
1799 920370 436103
1800 658131 920715
1801 712210 970152
1802 241778 279952
1803 148898 151899
1804 930176 538415
1805 847168 820751
1806 24797 184445
1807 519012 760530
1808 936487 417378
1809 886458 945483
1810 783169 949334
1811 632975 908000
1812 916011 417873
1813 970892 527796
1814 886339 970888
1815 697789 598415
1816 900464 959103
1817 866524 823161
1818 782523 960785
1819 303678 580750
1820 249957 935653
1821 696258 830374
1822 287447 924478
1823 72145 379513
1824 908663 986417
1825 264367 704299
1826 933667 409190
1827 371153 136301
1828 940743 451568
1829 890461 991817
1830 909088 995424
1831 295724 596048
1832 982166 209605
1833 246602 323349
1834 853308 839760
1835 125641 898270
1836 733475 71291
1837 900236 37346
1838 917408 415918
1839 418369 146877
1840 633928 410615
1841 123844 894527
1842 207820 911691
1843 -11576 767792
1844 750891 85252
1845 939319 975377
1846 938136 978903
1847 709243 991491
1848 443233 162188
1849 692615 978795
1850 240378 319096
1851 201542 935983
1852 865899 823915
1853 285709 715824
1854 665897 907695
1855 688031 265406
1856 196765 911247
1857 959172 213164
1858 606464 418834
1859 658065 897127
1860 942939 411802
1861 823164 960691
1862 12427 743371
1863 701991 560067
1864 907067 17423
1865 871389 803015
1866 289720 571588
1867 894005 940715
1868 717316 314767
1869 685126 560629
1870 729705 98961
1871 901176 975585
1872 980458 222674
1873 690467 285849
1874 128936 286302
1875 878574 79744
1876 91398 326996
1877 871515 1012957
1878 688502 990214
1879 694766 84456
1880 91850 355270
1881 936673 980274
1882 913960 408158
1883 207880 952360
1884 934371 333594
1885 72082 903176
1886 21827 752400
1887 54905 325419
1888 952771 552076
1889 909210 993800
1890 444366 134269
1891 104590 916261
1892 694327 616817
1893 871889 855738
1894 953836 434116
1895 895437 960368
1896 613018 417057
1897 834933 817465
1898 266399 704105
1899 952681 189583
1900 212539 926611
1901 305828 738851
1902 953620 549386
1903 -6835 742153
1904 976919 551689
1905 247269 270358
1906 211668 928533
1907 305210 564718
1908 648787 393139
1909 896800 7951
1910 672949 873851
1911 948600 557484
1912 49108 182775
1913 916898 934907
1914 268032 706655
1915 928143 25341
1916 632763 369561
1917 694530 110475
1918 100618 904482
1919 918008 23317
1920 653293 893125
1921 312466 544877
1922 242511 304236
1923 699505 103169
1924 228109 327029
1925 924796 973005
1926 3547 794703
1927 906518 984848
1928 908892 820686
1929 937680 996958
1930 319911 544160
1931 663914 844759
1932 920501 55172
1933 960867 562081
1934 907198 65751
1935 249562 929241
1936 918549 431499
1937 645646 419875
1938 856422 978454
1939 886831 818038
1940 716819 975800
1941 908766 989577
1942 676903 607617
1943 223231 899091
1944 286231 963244
1945 474105 758958
1946 709369 983533
1947 630855 402902
1948 645671 368898
1949 707602 286673
1950 266036 924846
1951 138940 889178
1952 298820 736624
1953 252983 704746
1954 273614 926830
1955 667937 911104
1956 692426 592948
1957 909391 432851
1958 901457 999369
1959 240891 290430
1960 446150 126430
1961 855416 804532
1962 5935 758274
1963 816908 891142
1964 919889 440548
1965 446232 147089
1966 917225 -3210
1967 280100 922979
1968 906626 995749
1969 285981 685285
1970 880477 995010
1971 291362 692449
1972 869446 994575
1973 297819 559922
1974 -31031 782175
1975 882840 983346
1976 120787 264958
1977 882732 986325
1978 663568 829653
1979 987538 563692
1980 152813 281842
1981 934409 429325
1982 165775 162263
1983 679251 87932
1984 300607 695231
1985 678252 889409
1986 719872 991190
1987 633029 396566
1988 966598 182108
1989 902871 359708
1990 649447 873441
1991 961314 546340
1992 169398 176443
1993 31619 190427
1994 358817 161471
1995 16180 188420
1996 896485 948491
1997 967229 391188
1998 364383 157530
1999 950294 533988
2000 667437 817319
2001 912880 48348
2002 40650 236716
2003 715476 1004533
2004 719865 240956
2005 263344 290092
2006 706627 88841
2007 372389 173741
2008 696172 1001812
2009 893231 805722
2010 119198 142640
2011 644175 266484
2012 926650 984598
2013 736902 1019397
2014 102923 241817
2015 918284 968547
2016 615924 414791
2017 7688 773829
2018 699147 117579
2019 686110 983504
2020 379645 157848
2021 148062 141820
2022 901762 30866
2023 926501 409518
2024 914449 557891
2025 -9697 760553
2026 298605 562696
2027 142879 282579
2028 635212 394282
2029 67152 325719
2030 393653 168646
2031 215743 903241
2032 398038 158758
2033 923515 45789
2034 277245 940007
2035 140541 129609
2036 947821 307542
2037 952204 423120
2038 129025 895003
2039 -14894 805116
2040 692972 896484
2041 263313 700013
2042 413682 146953
2043 283179 734356
2044 502358 756416
2045 704651 979420
2046 710527 121942
2047 688832 839197
2048 664152 855850
2049 813729 917533
2050 274451 702455
2051 404381 144442
2052 927310 24883
2053 648857 387208
2054 142224 143279
2055 671055 887962
2056 67034 327894
2057 628044 392740
2058 13539 803657
2059 793999 918251
2060 935236 307646
2061 675923 587692
2062 150479 121136
2063 686770 985678
2064 458832 167959
2065 130439 284361
2066 832877 816145
2067 -9866 759772
2068 699895 84652
2069 70692 316302
2070 934244 345544
2071 933436 550934
2072 279055 926436
2073 860253 992227
2074 636791 402555
2075 402105 137206
2076 748629 974524
2077 668026 928160
2078 219804 954101
2079 314563 712596
2080 72780 339373
2081 497547 745735
2082 952029 38004
2083 256088 676034
2084 699430 845828
2085 277194 681822
2086 978388 180292
2087 271933 308890
2088 697418 64992
2089 280836 919266
2090 908808 947866
2091 445980 101915
2092 226732 302007
2093 26278 186950
2094 122930 135936
2095 873644 838482
2096 653725 444697
2097 859246 820745
2098 655814 890686
2099 925402 522023
2100 6545 194459
2101 933792 555345
2102 116666 143961
2103 388155 163597
2104 912192 963012
2105 63253 318267
2106 271451 909192
2107 270084 287926
2108 291988 952154
2109 696301 303005
2110 272331 948065
2111 58830 188509
2112 231073 923374
2113 595873 401333
2114 213855 916610
2115 785072 943421
2116 508349 730438
2117 207756 303974
2118 973918 166103
2119 789152 932928
2120 292508 939374
2121 89233 247163
2122 84154 339540
2123 156887 125348
2124 121140 297638
2125 383791 121360
2126 897425 946276
2127 693484 564776
2128 517772 732176
2129 367110 146962
2130 914004 435248
2131 270689 588462
2132 949031 557025
2133 8530 208985
2134 30555 196710
2135 689194 82980
2136 905415 397167
2137 939944 13666
2138 138563 137472
2139 112760 253314
2140 918526 15326
2141 243780 937198
2142 146872 342411
2143 405157 124106
2144 643325 899148
2145 672497 874680
2146 897904 50458
2147 910494 961249
2148 124277 892542
2149 261256 285464
2150 324472 557167
2151 648963 823483
2152 266915 704331
2153 907808 968298
2154 959510 335025
2155 887152 42981
2156 193435 902279
2157 941214 16947
2158 20854 197105
2159 910075 29682
2160 282117 697370
2161 227238 294106
2162 650243 890132
2163 300758 543149
2164 72827 353890
2165 832688 957334
2166 444905 168540
2167 988956 208268
2168 638434 409292
2169 128580 864467
2170 703634 294416
2171 951750 196678
2172 889631 966593
2173 934555 402902
2174 718397 316188
2175 200 724471
2176 685818 586194
2177 889241 978127
2178 712386 106462
2179 830656 817394
2180 -22533 740631
2181 215948 945080
2182 263793 695524
2183 872252 818303
2184 974847 182790
2185 642279 407591
2186 810291 957229
2187 962873 205225
2188 815084 927673
2189 280527 710119
2190 63234 351417
2191 684061 299834
2192 327930 579270
2193 855893 827892
2194 254698 330512
2195 268556 279013
2196 119579 910144
2197 691841 847372
2198 946306 432853
2199 645875 409674
2200 323489 573368
2201 144474 126654
2202 109444 914452
2203 927053 556985
2204 24069 184528
2205 510013 736665
2206 952907 541994
2207 923213 966907
2208 870954 814431
2209 843883 791740
2210 820051 929736
2211 940070 320849
2212 917 232369
2213 103510 227604
2214 873939 827126
2215 119569 908931
2216 670108 302016
2217 934504 305426
2218 882199 950118
2219 704032 598106
2220 418597 134050
2221 924179 396603
2222 376421 137274
2223 916056 976276
2224 653419 901044
2225 292657 713604
2226 248339 276128
2227 423550 178632
2228 935166 303518
2229 291334 548416
2230 473116 786813
2231 241428 281707
2232 927961 7503
2233 384979 175543
2234 996958 231511
2235 632407 403720
2236 222031 291426
2237 304900 946389
2238 706631 948399
2239 145583 249032
2240 153272 909468
2241 706477 260499
2242 907462 946105
2243 728266 582079
2244 912920 973607
2245 419129 140604
2246 377632 143844
2247 288330 573880
2248 248873 706415
2249 254167 312938
2250 435812 137767
2251 981941 194243
2252 682252 882406
2253 692018 256971
2254 25160 789439
2255 120892 171172
2256 256778 311308
2257 886893 42553
2258 670724 276996
2259 65335 349352
2260 213445 914592
2261 916089 42820
2262 264150 261085
2263 690787 846948
2264 681384 98387
2265 133981 867076
2266 873187 811964
2267 807344 916906
2268 440046 107692
2269 370584 144548
2270 301378 706472
2271 272907 931434
2272 451213 762256
2273 10170 757099
2274 63277 359042
2275 469336 778326
2276 696749 1029451
2277 898592 379877
2278 277026 535012
2279 401161 128010
2280 700801 102626
2281 855301 813303
2282 529137 756461
2283 970113 194115
2284 869473 810209
2285 210988 931881
2286 115274 241536
2287 691451 79352
2288 70010 349377
2289 269722 717335
2290 301389 683770
2291 94155 349239
2292 645565 867368
2293 49724 802264
2294 664932 828615
2295 168100 148481
2296 907432 348686
2297 304160 919836
2298 726408 984779
2299 714908 90170
2300 305621 594057
2301 702656 84898
2302 101345 337544
2303 915803 38724
2304 876660 443771
2305 3530 774640
2306 934640 511231
2307 206914 920584
2308 698736 1002345
2309 922666 329800
2310 846270 811580
2311 243849 697812
2312 641075 894796
2313 626168 363624
2314 206092 928730
2315 128646 265307
2316 669924 873258
2317 914664 28650
2318 676580 273980
2319 278014 735726
2320 929470 25330
2321 261682 925470
2322 784339 925947
2323 422303 152400
2324 72606 357460
2325 800077 959135
2326 658505 893052
2327 895787 54197
2328 425014 199359
2329 979901 203239
2330 421087 132561
2331 924745 935466
2332 122454 910388
2333 926081 556714
2334 721855 66965
2335 57943 344664
2336 129079 160759
2337 118096 929495
2338 67511 381254
2339 693608 1006959
2340 -3296 207188
2341 646470 590488
2342 293702 898003
2343 514463 767971
2344 862381 825931
2345 271483 324894
2346 666468 401572
2347 692721 609454
2348 979756 199522
2349 150866 936515
2350 448736 149432
2351 923238 56667
2352 645802 852334
2353 950388 563845
2354 708440 829762
2355 145006 159443
2356 675677 265449
2357 158889 148478
2358 119468 270978
2359 795193 950384
2360 228642 952239
2361 957979 281290
2362 443818 170357
2363 217171 935837
2364 530 775501
2365 127663 916875
2366 4618 781270
2367 709869 310945
2368 950415 202534
2369 405705 148695
2370 113925 222791
2371 682504 592857
2372 690431 291218
2373 724251 970825
2374 914291 958018
2375 148831 287219
2376 888776 829631
2377 336623 706304
2378 939552 547887
2379 876660 995655
2380 684599 114091
2381 6464 776901
2382 945971 557937
2383 121823 899034
2384 303997 586725
2385 24045 747190
2386 6898 216798
2387 -12373 204099
2388 303945 947114
2389 672228 924451
2390 917852 459105
2391 704135 306618
2392 257482 726434
2393 878596 954928
2394 259518 717725
2395 681261 271542
2396 682408 105670
2397 198863 909954
2398 944222 540706
2399 147430 160602
2400 689963 1014884
2401 892353 969757
2402 74917 346730
2403 807285 923232
2404 914975 298280
2405 682349 913925
2406 -13332 763671
2407 -2483 768055
2408 860500 778235
2409 882099 989078
2410 644030 411206
2411 290078 692519
2412 910466 438975
2413 911001 26391
2414 71628 339576
2415 671484 885415
2416 280196 715568
2417 931907 937202
2418 212775 935144
2419 325487 545796
2420 149388 120670
2421 641459 396325
2422 387025 129774
2423 936576 341566
2424 827174 943920
2425 3690 195520
2426 886535 962066
2427 659277 297460
2428 729689 994797
2429 295011 698773
2430 692706 569172
2431 892623 413577
2432 -8340 764388
2433 257349 922592
2434 648274 935826
2435 868212 806776
2436 897975 307504
2437 700168 866344
2438 624344 379267
2439 707727 275910
2440 385586 153872
2441 943850 311825
2442 637978 409530
2443 -12944 765940
2444 486885 755020
2445 861358 971813
2446 873172 995217
2447 623988 386557
2448 680781 579368
2449 653086 411634
2450 676000 408400
2451 144942 145888
2452 694563 978468
2453 899734 1008995
2454 647034 394826
2455 248646 929284
2456 903826 962469
2457 923499 325014
2458 250539 684494
2459 709866 979270
2460 298760 569282
2461 458908 147266
2462 998127 189683
2463 375647 147751
2464 917297 377375
2465 278380 704266
2466 294917 721912
2467 213777 928161
2468 908265 396696
2469 925720 419102
2470 908922 390742
2471 81415 257308
2472 236938 928876
2473 812813 892774
2474 280617 688600
2475 658957 416696
2476 510228 802507
2477 965268 333699
2478 798181 911887
2479 271790 710596
2480 674966 902561
2481 274883 699939
2482 383501 172353
2483 395420 116736
2484 2707 207539
2485 79276 331884
2486 26459 207971
2487 967619 213153
2488 178754 911315
2489 109088 286426
2490 955222 566366
2491 900321 29991
2492 384284 159373
2493 828806 923962
2494 688597 1034184
2495 -21138 776931
2496 366406 141308
2497 250181 908914
2498 245969 296282
2499 243840 305271
2500 723222 81487
2501 881894 825142
2502 82705 273903
2503 -2987 733214
2504 434882 148550
2505 26496 184128
2506 688181 860678
2507 888156 945137
2508 674569 855989
2509 693765 855430
2510 56263 363006
2511 428823 139952
2512 868746 974803
2513 226613 689477
2514 290709 698221
2515 104161 257772
2516 946588 569374
2517 22525 204784
2518 723519 117034
2519 287941 690330
2520 179183 179906
2521 -16949 764849
2522 466156 108459
2523 122199 914784
2524 902381 435585
2525 909426 62298
2526 924459 960987
2527 988018 205165
2528 225353 965045
2529 695705 601910
2530 254572 920756
2531 807639 923205
2532 128690 286705
2533 -14112 760480
2534 266047 280222
2535 702482 308110
2536 435605 135853
2537 151681 154943
2538 908072 29052
2539 688065 68866
2540 4610 759585
2541 482311 749984
2542 521139 761300
2543 -22605 775771
2544 636964 951659
2545 211138 943707
2546 17908 207555
2547 630965 432864
2548 866635 829597
2549 504028 761478
2550 131578 341591
2551 710981 94307
2552 288539 572612
2553 244633 926473
2554 247312 724595
2555 269274 698065
2556 666859 870346
2557 936056 563145
2558 700723 95249
2559 919060 51959
2560 954271 423381
2561 889284 828066
2562 957872 210450
2563 264349 909150
2564 134935 889596
2565 879474 1004574
2566 910348 979965
2567 153893 150410
2568 702277 586889
2569 406101 153147
2570 111077 877945
2571 244557 302392
2572 917764 18955
2573 158993 163058
2574 983804 533286
2575 934013 294962
2576 947559 556206
2577 98524 322585
2578 881684 61440
2579 869458 1007434
2580 494330 749144
2581 223291 938809
2582 130905 869296
2583 460131 172252
2584 460899 112092
2585 213534 917306
2586 266315 909500
2587 317562 555459
2588 38821 228327
2589 701684 974190
2590 921164 971997
2591 507468 782086
2592 881184 985621
2593 701443 285446
2594 944836 219640
2595 316652 681474
2596 197983 941585
2597 905631 27702
2598 694353 103155
2599 702890 270884
2600 121649 153966
2601 994367 207878
2602 360892 143747
2603 469026 753920
2604 929108 427885
2605 918048 424149
2606 946912 960602
2607 368525 149315
2608 233277 294271
2609 42021 198857
2610 128099 889243
2611 227682 924202
2612 264709 925564
2613 913844 983116
2614 487305 784646
2615 709635 290415
2616 495580 760633
2617 320751 682671
2618 767021 926965
2619 427748 142606
2620 917794 304327
2621 930862 957533
2622 391659 194473
2623 917680 319045
2624 895015 27864
2625 266646 293649
2626 906740 990264
2627 507589 765216
2628 652945 389075
2629 77504 377893
2630 654524 932994
2631 283242 705513
2632 394721 142401
2633 402494 142699
2634 439441 167990
2635 850854 924019
2636 694454 573335
2637 407619 165221
2638 248373 279474
2639 293760 553543
2640 230463 292859
2641 947042 339960
2642 937051 569235
2643 670605 872972
2644 222032 935711
2645 933192 530229
2646 724511 849589
2647 265423 711281
2648 1004516 254772
2649 722428 101235
2650 933825 552221
2651 124793 892024
2652 76165 264705
2653 706999 73514
2654 26868 776377
2655 379535 169646
2656 916265 15506
2657 971100 211890
2658 205536 934780
2659 389613 161405
2660 617185 410849
2661 675320 833700
2662 611681 413437
2663 871726 822978
2664 953717 550531
2665 259161 935193
2666 883130 983012
2667 699035 597519
2668 906976 393256
2669 217151 925965
2670 280346 300754
2671 503626 765732
2672 244022 907348
2673 179416 170505
2674 878989 808062
2675 862229 973521
2676 -6595 771433
2677 124257 883965
2678 104104 913353
2679 899209 964391
2680 1012510 187017
2681 904267 346021
2682 676283 273152
2683 812773 890281
2684 625832 418354
2685 94903 369573
2686 863975 829053
2687 -12213 788514
2688 459227 712582
2689 138667 277534
2690 664327 265156
2691 233838 292089
2692 221807 919207
2693 290337 561466
2694 126364 258357
2695 680573 821538
2696 671002 892868
2697 296859 555425
2698 289424 938506
2699 139960 128633
2700 85280 343140
2701 16517 759348
2702 906842 3120
2703 288304 693933
2704 639952 855565
2705 700074 596142
2706 702712 989556
2707 135997 241496
2708 701952 586846
2709 412735 141872
2710 687027 906089
2711 664661 86226
2712 103999 344096
2713 872356 978748
2714 178839 140801
2715 930367 51511
2716 859545 812863
2717 51400 201124
2718 906957 30444
2719 157807 255727
2720 712275 104854
2721 114751 897538
2722 107689 907367
2723 660633 106722
2724 899543 563511
2725 210104 920870
2726 277266 968539
2727 271211 701103
2728 667927 844678
2729 424924 164534
2730 708522 97651
2731 911155 990
2732 858927 811100
2733 931843 427445
2734 698591 867029
2735 803241 961847
2736 911363 33048
2737 141615 166797
2738 644573 400374
2739 633756 396019
2740 676648 964869
2741 693225 113957
2742 815314 943559
2743 317698 906351
2744 272499 585336
2745 841390 938015
2746 726314 68584
2747 703404 1008526
2748 693385 1004787
2749 496891 765849
2750 679778 296421
2751 264723 935303
2752 927748 314782
2753 923923 330965
2754 696947 968520
2755 978322 586867
2756 665201 847302
2757 291528 742820
2758 911787 322114
2759 888644 971681
2760 926451 964567
2761 234949 907019
2762 729979 998933
2763 135201 890728
2764 897469 976569
2765 89637 295556
2766 719695 996783
2767 321003 576970
2768 481631 770955
2769 52502 196542
2770 669251 308121
2771 704528 68750
2772 801219 935554
2773 712452 303580
2774 921474 315027
2775 146637 147777
2776 366063 138285
2777 1023485 202225
2778 84822 334377
2779 907300 407557
2780 963285 412828
2781 -458 746305
2782 686747 78574
2783 896120 451001
2784 406587 171983
2785 963050 204031
2786 2743 765425
2787 930672 323911
2788 672918 311549
2789 455251 758444
2790 855668 799998
2791 342133 544425
2792 252092 301044
2793 826411 919667
2794 311548 533915
2795 438404 135633
2796 654783 407511
2797 6956 769030
2798 23775 758450
2799 674620 876351
2800 661620 96186
2801 808902 931217
2802 249465 272138
2803 904617 344777
2804 394589 173613
2805 284470 560923
2806 71929 362510
2807 102746 913832
2808 115198 253170
2809 671024 825425
2810 253983 729316
2811 952256 535474
2812 681733 302304
2813 6731 760998
2814 804922 924850
2815 -1267 751330
2816 88828 900621
2817 295789 531394
2818 120461 210166
2819 873065 965902
2820 290456 718095
2821 148967 153024
2822 618495 415028
2823 920126 564312
2824 870527 21400
2825 686354 872316
2826 109023 291225
2827 920301 960591
2828 491577 754775
2829 811115 909998
2830 822006 935759
2831 404766 147214
2832 934439 362402
2833 906007 819629
2834 668258 269862
2835 710568 595679
2836 139260 277420
2837 251809 917517
2838 442759 148790
2839 659167 923827
2840 679050 566808
2841 240912 288855
2842 624833 405128
2843 892159 956637
2844 932734 436931
2845 306089 574606
2846 690664 115910
2847 99541 245764
2848 948622 551410
2849 905216 30316
2850 300837 564140
2851 267716 718812
2852 -16745 770256
2853 882970 985014
2854 363252 181564
2855 265029 703742
2856 251930 273766
2857 850301 846268
2858 -6192 740786
2859 802626 927425
2860 683448 1037362
2861 64349 324997
2862 371345 133666
2863 801760 920601
2864 278045 710303
2865 406307 158333
2866 382276 156439
2867 389615 141722
2868 221760 948090
2869 188061 912591
2870 159482 924426
2871 31477 227933
2872 927546 331103
2873 938129 54067
2874 266608 941968
2875 707184 986765
2876 254807 728065
2877 795582 915318
2878 132192 905296
2879 933840 27685
2880 132672 258974
2881 899313 423872
2882 634034 406511
2883 920811 17058
2884 244283 745339
2885 31382 220486
2886 890224 819576
2887 147961 925015
2888 684864 904938
2889 848024 824681
2890 689561 866751
2891 243039 295580
2892 314999 552322
2893 637473 404623
2894 919833 349915
2895 429873 137037
2896 940433 331240
2897 268911 569173
2898 243537 269186
2899 457019 168243
2900 808063 890521
2901 149071 144722
2902 708860 154407
2903 811390 929363
2904 228773 914520
2905 269911 728838
2906 691130 1003642
2907 942110 338171
2908 316410 537420
2909 817081 897156
2910 687648 261034
2911 118143 279294
2912 152945 150727
2913 469847 141930
2914 680304 262843
2915 391368 144338
2916 504334 761501
2917 318308 546441
2918 284773 569755
2919 103019 279499
2920 695518 593977
2921 662752 833243
2922 272791 559898
2923 936161 416723
2924 253818 296880
2925 11580 188070
2926 820259 942383
2927 704496 544724
2928 7714 752670
2929 929598 393516
2930 481287 730486
2931 963365 202399
2932 248475 327126
2933 670458 817369
2934 123136 140004
2935 506640 734858
2936 293509 308707
2937 301001 694667
2938 276991 304566
2939 977381 213952
2940 713802 578643
2941 922730 960266
2942 925098 955188
2943 671739 577487
2944 293791 552896
2945 930417 556210
2946 467892 180313
2947 921566 34901
2948 269375 298233
2949 663683 856829
2950 964802 513157
2951 671693 295246
2952 710960 853178
2953 828521 927515
2954 389763 88068
2955 700302 577107
2956 200352 947059
2957 235852 947258
2958 926195 310527
2959 888996 24424
2960 61167 342871
2961 915761 966249
2962 490527 741463
2963 -6628 762207
2964 279213 675474
2965 -16345 777938
2966 85393 295571
2967 910620 965554
2968 670255 301144
2969 697381 860562
2970 263299 295379
2971 681473 296849
2972 260459 925879
2973 308157 530411
2974 260161 701708
2975 913192 959984
2976 285610 938250
2977 968098 219099
2978 273184 569438
2979 265542 929213
2980 790094 928044
2981 799489 949512
2982 878798 998127
2983 317944 583195
2984 152173 913291
2985 894702 818452
2986 146252 158172
2987 101749 939642
2988 961584 435280
2989 935536 568909
2990 309875 539042
2991 -1516 205202
2992 890224 961033
2993 707262 622390
2994 15815 233478
2995 902351 988511
2996 690698 126142
2997 680280 592291
2998 904641 59955
2999 857921 804319
3000 514053 763955
3001 -2064 744109
3002 140867 861176
3003 268392 710344
3004 949343 515155
3005 962977 248564
3006 698821 310166
3007 122321 128158
3008 910056 23159
3009 155569 911950
3010 922383 336646
3011 -17281 767085
3012 437536 142032
3013 -2872 764140
3014 881562 964126
3015 893918 25668
3016 506807 747730
3017 942616 523684
3018 826870 924946
3019 676145 847583
3020 184833 926998
3021 888011 71348
3022 913344 9000
3023 919806 430315
3024 641837 394070
3025 244308 301402
3026 899582 962476
3027 885944 998195
3028 97197 351375
3029 736465 598623
3030 6184 190823
3031 652199 841178
3032 489221 749243
3033 230980 269164
3034 162524 186344
3035 316312 681873
3036 506688 757414
3037 903081 990101
3038 124900 256612
3039 698875 569804
3040 221175 914953
3041 919539 325535
3042 896662 975993
3043 471414 757939
3044 316880 539793
3045 283706 930976
3046 110358 246848
3047 894619 976620
3048 942870 50875
3049 697307 586293
3050 94542 262733
3051 372308 155554
3052 707655 285450
3053 265835 927235
3054 921042 325505
3055 333879 584274
3056 932035 45192
3057 942422 415553
3058 415928 147885
3059 385674 134747
3060 670516 930058
3061 662399 396020
3062 20098 197801
3063 293917 596601
3064 227163 957944
3065 453101 158213
3066 915935 32131
3067 891814 982946
3068 -11653 755794
3069 944411 351560
3070 44331 222537
3071 815164 938502
3072 976117 206270
3073 287211 940152
3074 927417 980434
3075 257310 942970
3076 159084 161710
3077 959014 398934
3078 128655 250322
3079 943299 412394
3080 509856 747716
3081 651349 877006
3082 80719 357239
3083 708188 321174
3084 100901 254741
3085 845539 787584
3086 76445 868382
3087 209394 935598
3088 695030 277676
3089 688462 585356
3090 93743 375383
3091 874657 783736
3092 517122 768884
3093 670885 899800
3094 -30572 764639
3095 134511 175741
3096 674484 84348
3097 865493 797167
3098 109202 271699
3099 699077 280654
3100 8808 201248
3101 289812 542409
3102 960566 181277
3103 675835 321735
3104 508923 746792
3105 264674 928499
3106 238629 328632
3107 996308 194374
3108 926357 343762
3109 851055 822512
3110 695932 1015749
3111 991150 204896
3112 113354 887177
3113 140066 103064
3114 675417 310584
3115 276827 739552
3116 874353 825200
3117 262438 724210
3118 178557 896954
3119 873884 793631
3120 961516 194350
3121 135259 151891
3122 20617 773207
3123 114330 279638
3124 436630 140448
3125 661909 282584
3126 677517 869720
3127 714118 1015233
3128 258910 265999
3129 376787 121500
3130 204449 934429
3131 -11593 165806
3132 288923 726585
3133 662812 864239
3134 741336 987186
3135 928819 418427
3136 505673 733621
3137 299384 550927
3138 898739 964222
3139 452071 148545
3140 407723 163857
3141 326481 571643
3142 993743 190845
3143 89794 336472
3144 278147 563749
3145 113466 262153
3146 927458 536212
3147 486014 749298
3148 944343 579670
3149 99226 272401
3150 285588 562146
3151 451501 731102
3152 933811 549490
3153 126764 895188
3154 301208 565390
3155 -2483 764637
3156 904583 991244
3157 107170 256597
3158 928350 57067
3159 497619 743911
3160 989933 190850
3161 194159 940185
3162 294088 560414
